Cu64 H3 C1                              
   1.00000000000000     
    10.0909822868928778    0.0000000000000000    0.0000000000000000
     5.0454911434464389    8.7390470095880204    0.0000000000000000
     0.0000000000000000    0.0000000000000000   26.1794394015877110
   Cu   H    C 
    64     3     1
Selective dynamics
Direct
  0.0000000000000000  0.0000000000000000  0.3819791496143949   F   F   F
  0.2500000000000000  0.0000000000000000  0.3819791496143949   F   F   F
  0.5000000000000000  0.0000000000000000  0.3819791496143949   F   F   F
  0.7500000000000000  0.0000000000000000  0.3819791496143949   F   F   F
  0.0000000000000000  0.2500000000000000  0.3819791496143949   F   F   F
  0.2500000000000000  0.2500000000000000  0.3819791496143949   F   F   F
  0.5000000000000000  0.2500000000000000  0.3819791496143949   F   F   F
  0.7500000000000000  0.2500000000000000  0.3819791496143949   F   F   F
  0.0000000000000000  0.5000000000000000  0.3819791496143949   F   F   F
  0.2500000000000000  0.5000000000000000  0.3819791496143949   F   F   F
  0.5000000000000000  0.5000000000000000  0.3819791496143949   F   F   F
  0.7500000000000000  0.5000000000000000  0.3819791496143949   F   F   F
  0.0000000000000000  0.7500000000000000  0.3819791496143949   F   F   F
  0.2500000000000000  0.7500000000000000  0.3819791496143949   F   F   F
  0.5000000000000000  0.7500000000000000  0.3819791496143949   F   F   F
  0.7500000000000000  0.7500000000000000  0.3819791496143949   F   F   F
  0.0833333333333357  0.0833333333333357  0.4606597165381316   F   F   F
  0.3333333333333357  0.0833333333333357  0.4606597165381316   F   F   F
  0.5833333333333357  0.0833333333333357  0.4606597165381316   F   F   F
  0.8333333333333357  0.0833333333333357  0.4606597165381316   F   F   F
  0.0833333333333357  0.3333333333333357  0.4606597165381316   F   F   F
  0.3333333333333357  0.3333333333333357  0.4606597165381316   F   F   F
  0.5833333333333357  0.3333333333333357  0.4606597165381316   F   F   F
  0.8333333333333357  0.3333333333333357  0.4606597165381316   F   F   F
  0.0833333333333357  0.5833333333333357  0.4606597165381316   F   F   F
  0.3333333333333357  0.5833333333333357  0.4606597165381316   F   F   F
  0.5833333333333357  0.5833333333333357  0.4606597165381316   F   F   F
  0.8333333333333357  0.5833333333333357  0.4606597165381316   F   F   F
  0.0833333333333357  0.8333333333333357  0.4606597165381316   F   F   F
  0.3333333333333357  0.8333333333333357  0.4606597165381316   F   F   F
  0.5833333333333357  0.8333333333333357  0.4606597165381316   F   F   F
  0.8333333333333357  0.8333333333333357  0.4606597165381316   F   F   F
  0.9174027274025960  0.1662986362986985  0.5388158243396433   F   F   F
  0.1662986362986985  0.1662986362986985  0.5388158243396433   F   F   F
  0.4170471283626114  0.1663138761606078  0.5383287500541130   F   F   F
  0.6666389954767737  0.1663138761606078  0.5383287500541130   F   F   F
  0.9181994053497391  0.4136011893005218  0.5395770392454793   F   F   F
  0.1663138761606078  0.4170471283626114  0.5383287500541130   F   F   F
  0.4166666666666643  0.4166666666666643  0.5387772646301983   F   F   F
  0.6666389954767737  0.4170471283626114  0.5383287500541130   F   F   F
  0.9161880999741001  0.6669059500129464  0.5382722561209192   F   F   F
  0.1663138761606078  0.6666389954767737  0.5383287500541130   F   F   F
  0.4170471283626114  0.6666389954767737  0.5383287500541130   F   F   F
  0.6669059500129464  0.6669059500129464  0.5382722561209192   F   F   F
  0.9181994053497391  0.9181994053497391  0.5395770392454793   F   F   F
  0.1662986362986985  0.9174027274025960  0.5388158243396433   F   F   F
  0.4136011893005218  0.9181994053497391  0.5395770392454793   F   F   F
  0.6669059500129464  0.9161880999741001  0.5382722561209192   F   F   F
  0.0006140238841397  0.0006140238841397  0.6199236173729048   F   F   F
  0.2487719522317136  0.0006140238841397  0.6199236173729048   F   F   F
  0.5001810456516722  0.0000067868425475  0.6168336949171618   F   F   F
  0.7498121675057874  0.0000067868425475  0.6168336949171618   F   F   F
  0.0006140238841397  0.2487719522317136  0.6199236173729048   F   F   F
  0.2515349553514312  0.2515349553514312  0.6159055944628022   F   F   F
  0.5001171628766485  0.2497656742466958  0.6173251711326202   F   F   F
  0.7469300892971305  0.2515349553514312  0.6159055944628022   F   F   F
  0.0000067868425475  0.5001810456516722  0.6168336949171618   F   F   F
  0.2497656742466958  0.5001171628766485  0.6173251711326202   F   F   F
  0.5001171628766485  0.5001171628766485  0.6173251711326202   F   F   F
  0.7498121675057874  0.5001810456516722  0.6168336949171618   F   F   F
  0.0000067868425475  0.7498121675057874  0.6168336949171618   F   F   F
  0.2515349553514312  0.7469300892971305  0.6159055944628022   F   F   F
  0.5001810456516722  0.7498121675057874  0.6168336949171618   F   F   F
  0.7500000000000000  0.7500000000000000  0.6170577569003086   F   F   F
  0.0249638779748338  0.2000722440503324  0.7013638904769337   T   T   T
  0.2000721988916752  0.0249638779748338  0.7013638904769337   T   T   T
  0.0249639231334839  0.0249638779748338  0.7013638904769337   T   T   T
  0.0833333333333357  0.0833333333333357  0.6845307851511161   T   T   T
 
  0.00000000E+00  0.00000000E+00  0.00000000E+00
  0.00000000E+00  0.00000000E+00  0.00000000E+00
  0.00000000E+00  0.00000000E+00  0.00000000E+00
  0.00000000E+00  0.00000000E+00  0.00000000E+00
  0.00000000E+00  0.00000000E+00  0.00000000E+00
  0.00000000E+00  0.00000000E+00  0.00000000E+00
  0.00000000E+00  0.00000000E+00  0.00000000E+00
  0.00000000E+00  0.00000000E+00  0.00000000E+00
  0.00000000E+00  0.00000000E+00  0.00000000E+00
  0.00000000E+00  0.00000000E+00  0.00000000E+00
  0.00000000E+00  0.00000000E+00  0.00000000E+00
  0.00000000E+00  0.00000000E+00  0.00000000E+00
  0.00000000E+00  0.00000000E+00  0.00000000E+00
  0.00000000E+00  0.00000000E+00  0.00000000E+00
  0.00000000E+00  0.00000000E+00  0.00000000E+00
  0.00000000E+00  0.00000000E+00  0.00000000E+00
  0.00000000E+00  0.00000000E+00  0.00000000E+00
  0.00000000E+00  0.00000000E+00  0.00000000E+00
  0.00000000E+00  0.00000000E+00  0.00000000E+00
  0.00000000E+00  0.00000000E+00  0.00000000E+00
  0.00000000E+00  0.00000000E+00  0.00000000E+00
  0.00000000E+00  0.00000000E+00  0.00000000E+00
  0.00000000E+00  0.00000000E+00  0.00000000E+00
  0.00000000E+00  0.00000000E+00  0.00000000E+00
  0.00000000E+00  0.00000000E+00  0.00000000E+00
  0.00000000E+00  0.00000000E+00  0.00000000E+00
  0.00000000E+00  0.00000000E+00  0.00000000E+00
  0.00000000E+00  0.00000000E+00  0.00000000E+00
  0.00000000E+00  0.00000000E+00  0.00000000E+00
  0.00000000E+00  0.00000000E+00  0.00000000E+00
  0.00000000E+00  0.00000000E+00  0.00000000E+00
  0.00000000E+00  0.00000000E+00  0.00000000E+00
  0.00000000E+00  0.00000000E+00  0.00000000E+00
  0.00000000E+00  0.00000000E+00  0.00000000E+00
  0.00000000E+00  0.00000000E+00  0.00000000E+00
  0.00000000E+00  0.00000000E+00  0.00000000E+00
  0.00000000E+00  0.00000000E+00  0.00000000E+00
  0.00000000E+00  0.00000000E+00  0.00000000E+00
  0.00000000E+00  0.00000000E+00  0.00000000E+00
  0.00000000E+00  0.00000000E+00  0.00000000E+00
  0.00000000E+00  0.00000000E+00  0.00000000E+00
  0.00000000E+00  0.00000000E+00  0.00000000E+00
  0.00000000E+00  0.00000000E+00  0.00000000E+00
  0.00000000E+00  0.00000000E+00  0.00000000E+00
  0.00000000E+00  0.00000000E+00  0.00000000E+00
  0.00000000E+00  0.00000000E+00  0.00000000E+00
  0.00000000E+00  0.00000000E+00  0.00000000E+00
  0.00000000E+00  0.00000000E+00  0.00000000E+00
  0.00000000E+00  0.00000000E+00  0.00000000E+00
  0.00000000E+00  0.00000000E+00  0.00000000E+00
  0.00000000E+00  0.00000000E+00  0.00000000E+00
  0.00000000E+00  0.00000000E+00  0.00000000E+00
  0.00000000E+00  0.00000000E+00  0.00000000E+00
  0.00000000E+00  0.00000000E+00  0.00000000E+00
  0.00000000E+00  0.00000000E+00  0.00000000E+00
  0.00000000E+00  0.00000000E+00  0.00000000E+00
  0.00000000E+00  0.00000000E+00  0.00000000E+00
  0.00000000E+00  0.00000000E+00  0.00000000E+00
  0.00000000E+00  0.00000000E+00  0.00000000E+00
  0.00000000E+00  0.00000000E+00  0.00000000E+00
  0.00000000E+00  0.00000000E+00  0.00000000E+00
  0.00000000E+00  0.00000000E+00  0.00000000E+00
  0.00000000E+00  0.00000000E+00  0.00000000E+00
  0.00000000E+00  0.00000000E+00  0.00000000E+00
  0.00000000E+00  0.00000000E+00  0.00000000E+00
  0.00000000E+00  0.00000000E+00  0.00000000E+00
  0.00000000E+00  0.00000000E+00  0.00000000E+00
  0.00000000E+00  0.00000000E+00  0.00000000E+00
