Cu  O  C                                
   1.00000000000000     
    10.0909824370999992    0.0000000000000000    0.0000000000000000
     5.0454912185999996    8.7390471397000002    0.0000000000000000
     0.0000000000000000    0.0000000000000000   26.1794395446999992
   Cu   C    H    O 
    64     2     5     1
Selective dynamics
Direct
  0.5000000000000000  0.5000000000000000  0.3819791379999984   F   F   F
  0.7500000000000000  0.5000000000000000  0.3819791379999984   F   F   F
  0.0000000000000000  0.5000000000000000  0.3819791379999984   F   F   F
  0.2500000000000000  0.5000000000000000  0.3819791379999984   F   F   F
  0.5000000000000000  0.7500000000000000  0.3819791379999984   F   F   F
  0.7500000000000000  0.7500000000000000  0.3819791379999984   F   F   F
  0.0000000000000000  0.7500000000000000  0.3819791379999984   F   F   F
  0.2500000599999979  0.7500000000000000  0.3819791379999984   F   F   F
  0.5000000000000000  0.0000000000000000  0.3819791379999984   F   F   F
  0.7500000000000000  0.0000000000000000  0.3819791379999984   F   F   F
  0.0000000000000000  0.0000000000000000  0.3819791379999984   F   F   F
  0.2500000000000000  0.0000000000000000  0.3819791379999984   F   F   F
  0.5000000000000000  0.2500000000000000  0.3819791379999984   F   F   F
  0.7500000000000000  0.2500000000000000  0.3819791379999984   F   F   F
  0.0000000000000000  0.2500000000000000  0.3819791379999984   F   F   F
  0.2500000000000000  0.2500000000000000  0.3819791379999984   F   F   F
  0.5833333129999971  0.5833333129999971  0.4606597419999972   F   F   F
  0.8333333730000021  0.5833333129999971  0.4606597419999972   F   F   F
  0.0833333129999971  0.5833333129999971  0.4606597419999972   F   F   F
  0.3333333730000021  0.5833333129999971  0.4606597419999972   F   F   F
  0.5833333730000021  0.8333333129999971  0.4606597419999972   F   F   F
  0.8333333730000021  0.8333333129999971  0.4606597419999972   F   F   F
  0.0833333730000021  0.8333333129999971  0.4606597419999972   F   F   F
  0.3333333730000021  0.8333333129999971  0.4606597419999972   F   F   F
  0.5833333730000021  0.0833333129999971  0.4606597419999972   F   F   F
  0.8333333129999971  0.0833333129999971  0.4606597419999972   F   F   F
  0.0833333730000021  0.0833333129999971  0.4606597419999972   F   F   F
  0.3333333129999971  0.0833333129999971  0.4606597419999972   F   F   F
  0.5833333129999971  0.3333333730000021  0.4606597419999972   F   F   F
  0.8333333730000021  0.3333333730000021  0.4606597419999972   F   F   F
  0.0833333129999971  0.3333333730000021  0.4606597419999972   F   F   F
  0.3333333129999971  0.3333333730000021  0.4606597419999972   F   F   F
  0.4181539920456530  0.6661140944172246  0.5390297199525804   F   F   F
  0.6665148959740890  0.6656923147335689  0.5396368567842416   F   F   F
  0.9172013500813918  0.6662954667406993  0.5384986898271436   F   F   F
  0.1671255737523083  0.6662255442149103  0.5384298153250100   F   F   F
  0.4180124673192651  0.9146780683691063  0.5394892262232034   F   F   F
  0.6668012196270254  0.9166785119352809  0.5385475498281806   F   F   F
  0.9170437954862791  0.9165659393059187  0.5387563295692459   F   F   F
  0.1671238085752194  0.9169202184396852  0.5384494853287194   F   F   F
  0.4166150583678245  0.1665742038910949  0.5382463370919268   F   F   F
  0.6668994387482172  0.1665798710385999  0.5385012259492399   F   F   F
  0.9175555178957993  0.1664536424289622  0.5384696213856373   F   F   F
  0.1672454892702078  0.1668034776648071  0.5383017645062935   F   F   F
  0.4179360505660270  0.4171410351394300  0.5390506626350984   F   F   F
  0.6672691787419680  0.4174943693078390  0.5391912036177260   F   F   F
  0.9151730015521053  0.4175556247467398  0.5396607742177579   F   F   F
  0.1670238051311159  0.4159924381662066  0.5382148688819015   F   F   F
  0.4975833452814058  0.4945386059695096  0.6174352393083993   F   F   F
  0.7590707265585692  0.4954629974585885  0.6200607861971648   F   F   F
  0.0025294426844127  0.4995237139149893  0.6173634429427537   F   F   F
  0.2489938763140955  0.4991257296900500  0.6167031556399252   F   F   F
  0.4956298891192361  0.7582156406218701  0.6191588038441722   F   F   F
  0.7524406324707940  0.7515305005994861  0.6165351223398829   F   F   F
  0.0006070984948181  0.7497416966341319  0.6175421482850609   F   F   F
  0.2466290057375531  0.7518762614799073  0.6160467671104257   F   F   F
  0.5003241164294749  0.0014763867233967  0.6172950421696939   F   F   F
  0.7507628426253561  0.9996069010271498  0.6176104758322367   F   F   F
  0.0007569245150876  0.9996365698264924  0.6176158473810034   F   F   F
  0.2487666041767653  0.0020022294225441  0.6172530013924060   F   F   F
  0.5005293315164892  0.2476531114383391  0.6170403467212537   F   F   F
  0.7530757196486704  0.2455604142888603  0.6163846176258758   F   F   F
  0.0026165205173569  0.2481745389129628  0.6173268654025392   F   F   F
  0.2507407773813739  0.2497739650305277  0.6172122100746478   F   F   F
  0.5514590703411670  0.5829663199795263  0.7240137258644381   T   T   T
  0.3995204264442975  0.5908033265114128  0.7336151157891209   T   T   T
  0.3759340895221612  0.5929709523958309  0.7747028506305469   T   T   T
  0.3052856187782922  0.6946074465040724  0.7160385472858906   T   T   T
  0.3995744003158066  0.4909390785806096  0.7165326769158540   T   T   T
  0.5536873726726412  0.6814184947500763  0.7413021205397712   T   T   T
  0.6466097597548313  0.4773325931740047  0.7402744223920834   T   T   T
  0.5783487762536623  0.5834868632446018  0.6694984154191101   T   T   T
 
  0.00000000E+00  0.00000000E+00  0.00000000E+00
  0.00000000E+00  0.00000000E+00  0.00000000E+00
  0.00000000E+00  0.00000000E+00  0.00000000E+00
  0.00000000E+00  0.00000000E+00  0.00000000E+00
  0.00000000E+00  0.00000000E+00  0.00000000E+00
  0.00000000E+00  0.00000000E+00  0.00000000E+00
  0.00000000E+00  0.00000000E+00  0.00000000E+00
  0.00000000E+00  0.00000000E+00  0.00000000E+00
  0.00000000E+00  0.00000000E+00  0.00000000E+00
  0.00000000E+00  0.00000000E+00  0.00000000E+00
  0.00000000E+00  0.00000000E+00  0.00000000E+00
  0.00000000E+00  0.00000000E+00  0.00000000E+00
  0.00000000E+00  0.00000000E+00  0.00000000E+00
  0.00000000E+00  0.00000000E+00  0.00000000E+00
  0.00000000E+00  0.00000000E+00  0.00000000E+00
  0.00000000E+00  0.00000000E+00  0.00000000E+00
  0.00000000E+00  0.00000000E+00  0.00000000E+00
  0.00000000E+00  0.00000000E+00  0.00000000E+00
  0.00000000E+00  0.00000000E+00  0.00000000E+00
  0.00000000E+00  0.00000000E+00  0.00000000E+00
  0.00000000E+00  0.00000000E+00  0.00000000E+00
  0.00000000E+00  0.00000000E+00  0.00000000E+00
  0.00000000E+00  0.00000000E+00  0.00000000E+00
  0.00000000E+00  0.00000000E+00  0.00000000E+00
  0.00000000E+00  0.00000000E+00  0.00000000E+00
  0.00000000E+00  0.00000000E+00  0.00000000E+00
  0.00000000E+00  0.00000000E+00  0.00000000E+00
  0.00000000E+00  0.00000000E+00  0.00000000E+00
  0.00000000E+00  0.00000000E+00  0.00000000E+00
  0.00000000E+00  0.00000000E+00  0.00000000E+00
  0.00000000E+00  0.00000000E+00  0.00000000E+00
  0.00000000E+00  0.00000000E+00  0.00000000E+00
  0.00000000E+00  0.00000000E+00  0.00000000E+00
  0.00000000E+00  0.00000000E+00  0.00000000E+00
  0.00000000E+00  0.00000000E+00  0.00000000E+00
  0.00000000E+00  0.00000000E+00  0.00000000E+00
  0.00000000E+00  0.00000000E+00  0.00000000E+00
  0.00000000E+00  0.00000000E+00  0.00000000E+00
  0.00000000E+00  0.00000000E+00  0.00000000E+00
  0.00000000E+00  0.00000000E+00  0.00000000E+00
  0.00000000E+00  0.00000000E+00  0.00000000E+00
  0.00000000E+00  0.00000000E+00  0.00000000E+00
  0.00000000E+00  0.00000000E+00  0.00000000E+00
  0.00000000E+00  0.00000000E+00  0.00000000E+00
  0.00000000E+00  0.00000000E+00  0.00000000E+00
  0.00000000E+00  0.00000000E+00  0.00000000E+00
  0.00000000E+00  0.00000000E+00  0.00000000E+00
  0.00000000E+00  0.00000000E+00  0.00000000E+00
  0.00000000E+00  0.00000000E+00  0.00000000E+00
  0.00000000E+00  0.00000000E+00  0.00000000E+00
  0.00000000E+00  0.00000000E+00  0.00000000E+00
  0.00000000E+00  0.00000000E+00  0.00000000E+00
  0.00000000E+00  0.00000000E+00  0.00000000E+00
  0.00000000E+00  0.00000000E+00  0.00000000E+00
  0.00000000E+00  0.00000000E+00  0.00000000E+00
  0.00000000E+00  0.00000000E+00  0.00000000E+00
  0.00000000E+00  0.00000000E+00  0.00000000E+00
  0.00000000E+00  0.00000000E+00  0.00000000E+00
  0.00000000E+00  0.00000000E+00  0.00000000E+00
  0.00000000E+00  0.00000000E+00  0.00000000E+00
  0.00000000E+00  0.00000000E+00  0.00000000E+00
  0.00000000E+00  0.00000000E+00  0.00000000E+00
  0.00000000E+00  0.00000000E+00  0.00000000E+00
  0.00000000E+00  0.00000000E+00  0.00000000E+00
  0.00000000E+00  0.00000000E+00  0.00000000E+00
  0.00000000E+00  0.00000000E+00  0.00000000E+00
  0.00000000E+00  0.00000000E+00  0.00000000E+00
  0.00000000E+00  0.00000000E+00  0.00000000E+00
  0.00000000E+00  0.00000000E+00  0.00000000E+00
  0.00000000E+00  0.00000000E+00  0.00000000E+00
  0.00000000E+00  0.00000000E+00  0.00000000E+00
  0.00000000E+00  0.00000000E+00  0.00000000E+00
