Cu  O  C                                
   1.00000000000000     
    10.0909824370999992    0.0000000000000000    0.0000000000000000
     5.0454912185999996    8.7390471397000002    0.0000000000000000
     0.0000000000000000    0.0000000000000000   26.1794395446999992
   Cu   C    H    O 
    64     2     3     1
Selective dynamics
Direct
  0.5000000000000000  0.5000000000000000  0.3819791379999984   F   F   F
  0.7500000000000000  0.5000000000000000  0.3819791379999984   F   F   F
  0.0000000000000000  0.5000000000000000  0.3819791379999984   F   F   F
  0.2500000000000000  0.5000000000000000  0.3819791379999984   F   F   F
  0.5000000000000000  0.7500000000000000  0.3819791379999984   F   F   F
  0.7500000000000000  0.7500000000000000  0.3819791379999984   F   F   F
  0.0000000000000000  0.7500000000000000  0.3819791379999984   F   F   F
  0.2500000599999979  0.7500000000000000  0.3819791379999984   F   F   F
  0.5000000000000000  0.0000000000000000  0.3819791379999984   F   F   F
  0.7500000000000000  0.0000000000000000  0.3819791379999984   F   F   F
  0.0000000000000000  0.0000000000000000  0.3819791379999984   F   F   F
  0.2500000000000000  0.0000000000000000  0.3819791379999984   F   F   F
  0.5000000000000000  0.2500000000000000  0.3819791379999984   F   F   F
  0.7500000000000000  0.2500000000000000  0.3819791379999984   F   F   F
  0.0000000000000000  0.2500000000000000  0.3819791379999984   F   F   F
  0.2500000000000000  0.2500000000000000  0.3819791379999984   F   F   F
  0.5833333129999971  0.5833333129999971  0.4606597419999972   F   F   F
  0.8333333730000021  0.5833333129999971  0.4606597419999972   F   F   F
  0.0833333129999971  0.5833333129999971  0.4606597419999972   F   F   F
  0.3333333730000021  0.5833333129999971  0.4606597419999972   F   F   F
  0.5833333730000021  0.8333333129999971  0.4606597419999972   F   F   F
  0.8333333730000021  0.8333333129999971  0.4606597419999972   F   F   F
  0.0833333730000021  0.8333333129999971  0.4606597419999972   F   F   F
  0.3333333730000021  0.8333333129999971  0.4606597419999972   F   F   F
  0.5833333730000021  0.0833333129999971  0.4606597419999972   F   F   F
  0.8333333129999971  0.0833333129999971  0.4606597419999972   F   F   F
  0.0833333730000021  0.0833333129999971  0.4606597419999972   F   F   F
  0.3333333129999971  0.0833333129999971  0.4606597419999972   F   F   F
  0.5833333129999971  0.3333333730000021  0.4606597419999972   F   F   F
  0.8333333730000021  0.3333333730000021  0.4606597419999972   F   F   F
  0.0833333129999971  0.3333333730000021  0.4606597419999972   F   F   F
  0.3333333129999971  0.3333333730000021  0.4606597419999972   F   F   F
  0.4170278972339858  0.6666918952159406  0.5388564892649299   F   F   F
  0.6657648461833574  0.6662676132474203  0.5397607211374051   F   F   F
  0.9162322154233493  0.6665778469368533  0.5384222605673301   F   F   F
  0.1661063018175710  0.6665521321361751  0.5382607677070439   F   F   F
  0.4173095890852068  0.9144204866251968  0.5395921913204944   F   F   F
  0.6658596347175276  0.9170241010148459  0.5384774544740125   F   F   F
  0.9161244028210476  0.9169926906610755  0.5386515265640952   F   F   F
  0.1660943494092564  0.9174468364819361  0.5383509561860365   F   F   F
  0.4158476088502638  0.1667813415682673  0.5383874791330001   F   F   F
  0.6661351790261989  0.1669082494533924  0.5384707080495730   F   F   F
  0.9164005185479880  0.1669674408223685  0.5385163480662456   F   F   F
  0.1659324022043549  0.1672899553299132  0.5383362281537742   F   F   F
  0.4164801895525301  0.4169858148157815  0.5385911714112339   F   F   F
  0.6663444115726307  0.4178864390946444  0.5394372260871449   F   F   F
  0.9136044951611453  0.4182802195763173  0.5397639908089147   F   F   F
  0.1658069383712046  0.4163675472042598  0.5382749515253096   F   F   F
  0.4969804077887829  0.4968700625449145  0.6167785700750272   F   F   F
  0.7525482285816807  0.4970680359626485  0.6208841949511594   F   F   F
  0.0002032544912396  0.5002201234049437  0.6172142846145405   F   F   F
  0.2479329799094359  0.4995922056341158  0.6165408410300728   F   F   F
  0.4932324367915086  0.7552485847398103  0.6195330517064974   F   F   F
  0.7511124555839928  0.7525130016359540  0.6162666956146907   F   F   F
  0.9991590232388106  0.7503172503564883  0.6173146983547184   F   F   F
  0.2452582190388171  0.7522899052774079  0.6157669043245591   F   F   F
  0.4988423143888809  0.0017272767260010  0.6170149167004411   F   F   F
  0.7492655959864507  0.0005354397509123  0.6173525909224153   F   F   F
  0.9987952477772950  0.0005853916876433  0.6173118106946731   F   F   F
  0.2469270484962678  0.0026197653106692  0.6170777320093634   F   F   F
  0.4991255615269097  0.2491398950911261  0.6173136613939647   F   F   F
  0.7501626773666814  0.2478032287820184  0.6169237506487448   F   F   F
  0.9997235037373713  0.2498094477595885  0.6173891091613797   F   F   F
  0.2490578048929919  0.2503708245384004  0.6171086214944310   F   F   F
  0.5473831160798497  0.5835239104432333  0.7212595694436743   T   T   T
  0.4125038632304978  0.5874418904817418  0.7256164829306258   T   T   T
  0.3814609881764568  0.5524494990821722  0.7608656289903379   T   T   T
  0.3274975481726656  0.6293568088408108  0.6946810288116083   T   T   T
  0.6265575662108276  0.5471492788197239  0.7538261049136281   T   T   T
  0.6004966079007873  0.6222173961743351  0.6793620817523487   T   T   T
 
  0.00000000E+00  0.00000000E+00  0.00000000E+00
  0.00000000E+00  0.00000000E+00  0.00000000E+00
  0.00000000E+00  0.00000000E+00  0.00000000E+00
  0.00000000E+00  0.00000000E+00  0.00000000E+00
  0.00000000E+00  0.00000000E+00  0.00000000E+00
  0.00000000E+00  0.00000000E+00  0.00000000E+00
  0.00000000E+00  0.00000000E+00  0.00000000E+00
  0.00000000E+00  0.00000000E+00  0.00000000E+00
  0.00000000E+00  0.00000000E+00  0.00000000E+00
  0.00000000E+00  0.00000000E+00  0.00000000E+00
  0.00000000E+00  0.00000000E+00  0.00000000E+00
  0.00000000E+00  0.00000000E+00  0.00000000E+00
  0.00000000E+00  0.00000000E+00  0.00000000E+00
  0.00000000E+00  0.00000000E+00  0.00000000E+00
  0.00000000E+00  0.00000000E+00  0.00000000E+00
  0.00000000E+00  0.00000000E+00  0.00000000E+00
  0.00000000E+00  0.00000000E+00  0.00000000E+00
  0.00000000E+00  0.00000000E+00  0.00000000E+00
  0.00000000E+00  0.00000000E+00  0.00000000E+00
  0.00000000E+00  0.00000000E+00  0.00000000E+00
  0.00000000E+00  0.00000000E+00  0.00000000E+00
  0.00000000E+00  0.00000000E+00  0.00000000E+00
  0.00000000E+00  0.00000000E+00  0.00000000E+00
  0.00000000E+00  0.00000000E+00  0.00000000E+00
  0.00000000E+00  0.00000000E+00  0.00000000E+00
  0.00000000E+00  0.00000000E+00  0.00000000E+00
  0.00000000E+00  0.00000000E+00  0.00000000E+00
  0.00000000E+00  0.00000000E+00  0.00000000E+00
  0.00000000E+00  0.00000000E+00  0.00000000E+00
  0.00000000E+00  0.00000000E+00  0.00000000E+00
  0.00000000E+00  0.00000000E+00  0.00000000E+00
  0.00000000E+00  0.00000000E+00  0.00000000E+00
  0.00000000E+00  0.00000000E+00  0.00000000E+00
  0.00000000E+00  0.00000000E+00  0.00000000E+00
  0.00000000E+00  0.00000000E+00  0.00000000E+00
  0.00000000E+00  0.00000000E+00  0.00000000E+00
  0.00000000E+00  0.00000000E+00  0.00000000E+00
  0.00000000E+00  0.00000000E+00  0.00000000E+00
  0.00000000E+00  0.00000000E+00  0.00000000E+00
  0.00000000E+00  0.00000000E+00  0.00000000E+00
  0.00000000E+00  0.00000000E+00  0.00000000E+00
  0.00000000E+00  0.00000000E+00  0.00000000E+00
  0.00000000E+00  0.00000000E+00  0.00000000E+00
  0.00000000E+00  0.00000000E+00  0.00000000E+00
  0.00000000E+00  0.00000000E+00  0.00000000E+00
  0.00000000E+00  0.00000000E+00  0.00000000E+00
  0.00000000E+00  0.00000000E+00  0.00000000E+00
  0.00000000E+00  0.00000000E+00  0.00000000E+00
  0.00000000E+00  0.00000000E+00  0.00000000E+00
  0.00000000E+00  0.00000000E+00  0.00000000E+00
  0.00000000E+00  0.00000000E+00  0.00000000E+00
  0.00000000E+00  0.00000000E+00  0.00000000E+00
  0.00000000E+00  0.00000000E+00  0.00000000E+00
  0.00000000E+00  0.00000000E+00  0.00000000E+00
  0.00000000E+00  0.00000000E+00  0.00000000E+00
  0.00000000E+00  0.00000000E+00  0.00000000E+00
  0.00000000E+00  0.00000000E+00  0.00000000E+00
  0.00000000E+00  0.00000000E+00  0.00000000E+00
  0.00000000E+00  0.00000000E+00  0.00000000E+00
  0.00000000E+00  0.00000000E+00  0.00000000E+00
  0.00000000E+00  0.00000000E+00  0.00000000E+00
  0.00000000E+00  0.00000000E+00  0.00000000E+00
  0.00000000E+00  0.00000000E+00  0.00000000E+00
  0.00000000E+00  0.00000000E+00  0.00000000E+00
  0.00000000E+00  0.00000000E+00  0.00000000E+00
  0.00000000E+00  0.00000000E+00  0.00000000E+00
  0.00000000E+00  0.00000000E+00  0.00000000E+00
  0.00000000E+00  0.00000000E+00  0.00000000E+00
  0.00000000E+00  0.00000000E+00  0.00000000E+00
  0.00000000E+00  0.00000000E+00  0.00000000E+00
