Cu64 H2 C1 O1                           
   1.00000000000000     
    10.0909822868928778    0.0000000000000000    0.0000000000000000
     5.0454911434464389    8.7390470095880204    0.0000000000000000
     0.0000000000000000    0.0000000000000000   26.1794394015877110
   Cu   H    C    O 
    64     2     1     1
Selective dynamics
Direct
  0.0000000000000000  0.0000000000000000  0.3819791496143949   F   F   F
  0.2500000000000000  0.0000000000000000  0.3819791496143949   F   F   F
  0.5000000000000000  0.0000000000000000  0.3819791496143949   F   F   F
  0.7500000000000000  0.0000000000000000  0.3819791496143949   F   F   F
  0.0000000000000000  0.2500000000000000  0.3819791496143949   F   F   F
  0.2500000000000000  0.2500000000000000  0.3819791496143949   F   F   F
  0.5000000000000000  0.2500000000000000  0.3819791496143949   F   F   F
  0.7500000000000000  0.2500000000000000  0.3819791496143949   F   F   F
  0.0000000000000000  0.5000000000000000  0.3819791496143949   F   F   F
  0.2500000000000000  0.5000000000000000  0.3819791496143949   F   F   F
  0.5000000000000000  0.5000000000000000  0.3819791496143949   F   F   F
  0.7500000000000000  0.5000000000000000  0.3819791496143949   F   F   F
  0.0000000000000000  0.7500000000000000  0.3819791496143949   F   F   F
  0.2500000000000000  0.7500000000000000  0.3819791496143949   F   F   F
  0.5000000000000000  0.7500000000000000  0.3819791496143949   F   F   F
  0.7500000000000000  0.7500000000000000  0.3819791496143949   F   F   F
  0.0833333333333357  0.0833333333333357  0.4606597165381316   F   F   F
  0.3333333333333357  0.0833333333333357  0.4606597165381316   F   F   F
  0.5833333333333357  0.0833333333333357  0.4606597165381316   F   F   F
  0.8333333333333357  0.0833333333333357  0.4606597165381316   F   F   F
  0.0833333333333357  0.3333333333333357  0.4606597165381316   F   F   F
  0.3333333333333357  0.3333333333333357  0.4606597165381316   F   F   F
  0.5833333333333357  0.3333333333333357  0.4606597165381316   F   F   F
  0.8333333333333357  0.3333333333333357  0.4606597165381316   F   F   F
  0.0833333333333357  0.5833333333333357  0.4606597165381316   F   F   F
  0.3333333333333357  0.5833333333333357  0.4606597165381316   F   F   F
  0.5833333333333357  0.5833333333333357  0.4606597165381316   F   F   F
  0.8333333333333357  0.5833333333333357  0.4606597165381316   F   F   F
  0.0833333333333357  0.8333333333333357  0.4606597165381316   F   F   F
  0.3333333333333357  0.8333333333333357  0.4606597165381316   F   F   F
  0.5833333333333357  0.8333333333333357  0.4606597165381316   F   F   F
  0.8333333333333357  0.8333333333333357  0.4606597165381316   F   F   F
  0.9166683312886192  0.1666671604023122  0.5389901778280972   F   F   F
  0.1666675505687394  0.1666675505687394  0.5389900211271978   F   F   F
  0.4166678619801374  0.1666685863103723  0.5389950361792586   F   F   F
  0.6666696227033455  0.1666675612543358  0.5389963364722377   F   F   F
  0.9166689830139845  0.4166659046931258  0.5389928770713794   F   F   F
  0.1666685863103723  0.4166678619801374  0.5389950361792586   F   F   F
  0.4166684016471649  0.4166684016471649  0.5389946932173117   F   F   F
  0.6666684141341790  0.4166664611653133  0.5389928626092839   F   F   F
  0.9166695500815862  0.6666692909339389  0.5389994554414201   F   F   F
  0.1666675612543358  0.6666696227033455  0.5389963364722377   F   F   F
  0.4166664611653133  0.6666684141341790  0.5389928626092839   F   F   F
  0.6666675988048283  0.6666675988048283  0.5389956398757221   F   F   F
  0.9166687512555072  0.9166687512555072  0.5389976118068205   F   F   F
  0.1666671604023122  0.9166683312886192  0.5389901778280972   F   F   F
  0.4166659046931258  0.9166689830139845  0.5389928770713794   F   F   F
  0.6666692909339389  0.9166695500815862  0.5389994554414201   F   F   F
  0.0000092639811413  0.0000092639811413  0.6179804768323720   F   F   F
  0.2499892623026980  0.0000040713371590  0.6179775270267100   F   F   F
  0.4999899877149261  0.0000040836148472  0.6179767536173060   F   F   F
  0.7500081508731213  0.0000084551245934  0.6179832333346553   F   F   F
  0.0000040713371590  0.2499892623026980  0.6179775270267100   F   F   F
  0.2499950550396690  0.2499950550396690  0.6179757362963585   F   F   F
  0.5000026589496116  0.2500038560344606  0.6179767314640046   F   F   F
  0.7500146068090743  0.2499981975080559  0.6179787951157820   F   F   F
  0.0000040836148472  0.4999899877149261  0.6179767536173060   F   F   F
  0.2500038560344606  0.5000026589496116  0.6179767314640046   F   F   F
  0.5000034628542451  0.5000034628542451  0.6179758455453594   F   F   F
  0.7500044685704452  0.4999911174351155  0.6179761451404602   F   F   F
  0.0000084551245934  0.7500081508731213  0.6179832333346553   F   F   F
  0.2499981975080559  0.7500146068090743  0.6179787951157820   F   F   F
  0.4999911174351155  0.7500044685704452  0.6179761451404602   F   F   F
  0.7499988307188730  0.7499988307188730  0.6179784462494595   F   F   F
  0.1240310420843613  0.9360942147281932  0.8564002758486353   T   T   T
  0.9360938886288110  0.1240315672757788  0.8564002758486353   T   T   T
  0.9963223299292778  0.9963223299292778  0.8573797668546774   T   T   T
  0.9269027957464075  0.9269027503947384  0.8588811433773652   T   T   T
 
  0.00000000E+00  0.00000000E+00  0.00000000E+00
  0.00000000E+00  0.00000000E+00  0.00000000E+00
  0.00000000E+00  0.00000000E+00  0.00000000E+00
  0.00000000E+00  0.00000000E+00  0.00000000E+00
  0.00000000E+00  0.00000000E+00  0.00000000E+00
  0.00000000E+00  0.00000000E+00  0.00000000E+00
  0.00000000E+00  0.00000000E+00  0.00000000E+00
  0.00000000E+00  0.00000000E+00  0.00000000E+00
  0.00000000E+00  0.00000000E+00  0.00000000E+00
  0.00000000E+00  0.00000000E+00  0.00000000E+00
  0.00000000E+00  0.00000000E+00  0.00000000E+00
  0.00000000E+00  0.00000000E+00  0.00000000E+00
  0.00000000E+00  0.00000000E+00  0.00000000E+00
  0.00000000E+00  0.00000000E+00  0.00000000E+00
  0.00000000E+00  0.00000000E+00  0.00000000E+00
  0.00000000E+00  0.00000000E+00  0.00000000E+00
  0.00000000E+00  0.00000000E+00  0.00000000E+00
  0.00000000E+00  0.00000000E+00  0.00000000E+00
  0.00000000E+00  0.00000000E+00  0.00000000E+00
  0.00000000E+00  0.00000000E+00  0.00000000E+00
  0.00000000E+00  0.00000000E+00  0.00000000E+00
  0.00000000E+00  0.00000000E+00  0.00000000E+00
  0.00000000E+00  0.00000000E+00  0.00000000E+00
  0.00000000E+00  0.00000000E+00  0.00000000E+00
  0.00000000E+00  0.00000000E+00  0.00000000E+00
  0.00000000E+00  0.00000000E+00  0.00000000E+00
  0.00000000E+00  0.00000000E+00  0.00000000E+00
  0.00000000E+00  0.00000000E+00  0.00000000E+00
  0.00000000E+00  0.00000000E+00  0.00000000E+00
  0.00000000E+00  0.00000000E+00  0.00000000E+00
  0.00000000E+00  0.00000000E+00  0.00000000E+00
  0.00000000E+00  0.00000000E+00  0.00000000E+00
  0.00000000E+00  0.00000000E+00  0.00000000E+00
  0.00000000E+00  0.00000000E+00  0.00000000E+00
  0.00000000E+00  0.00000000E+00  0.00000000E+00
  0.00000000E+00  0.00000000E+00  0.00000000E+00
  0.00000000E+00  0.00000000E+00  0.00000000E+00
  0.00000000E+00  0.00000000E+00  0.00000000E+00
  0.00000000E+00  0.00000000E+00  0.00000000E+00
  0.00000000E+00  0.00000000E+00  0.00000000E+00
  0.00000000E+00  0.00000000E+00  0.00000000E+00
  0.00000000E+00  0.00000000E+00  0.00000000E+00
  0.00000000E+00  0.00000000E+00  0.00000000E+00
  0.00000000E+00  0.00000000E+00  0.00000000E+00
  0.00000000E+00  0.00000000E+00  0.00000000E+00
  0.00000000E+00  0.00000000E+00  0.00000000E+00
  0.00000000E+00  0.00000000E+00  0.00000000E+00
  0.00000000E+00  0.00000000E+00  0.00000000E+00
  0.00000000E+00  0.00000000E+00  0.00000000E+00
  0.00000000E+00  0.00000000E+00  0.00000000E+00
  0.00000000E+00  0.00000000E+00  0.00000000E+00
  0.00000000E+00  0.00000000E+00  0.00000000E+00
  0.00000000E+00  0.00000000E+00  0.00000000E+00
  0.00000000E+00  0.00000000E+00  0.00000000E+00
  0.00000000E+00  0.00000000E+00  0.00000000E+00
  0.00000000E+00  0.00000000E+00  0.00000000E+00
  0.00000000E+00  0.00000000E+00  0.00000000E+00
  0.00000000E+00  0.00000000E+00  0.00000000E+00
  0.00000000E+00  0.00000000E+00  0.00000000E+00
  0.00000000E+00  0.00000000E+00  0.00000000E+00
  0.00000000E+00  0.00000000E+00  0.00000000E+00
  0.00000000E+00  0.00000000E+00  0.00000000E+00
  0.00000000E+00  0.00000000E+00  0.00000000E+00
  0.00000000E+00  0.00000000E+00  0.00000000E+00
  0.00000000E+00  0.00000000E+00  0.00000000E+00
  0.00000000E+00  0.00000000E+00  0.00000000E+00
  0.00000000E+00  0.00000000E+00  0.00000000E+00
  0.00000000E+00  0.00000000E+00  0.00000000E+00
