Cu  O  C                                
   1.00000000000000     
    10.0909824370999992    0.0000000000000000    0.0000000000000000
     5.0454912185999996    8.7390471397000002    0.0000000000000000
     0.0000000000000000    0.0000000000000000   26.1794395446999992
   Cu   C    H    O 
    64     2     2     1
Selective dynamics
Direct
  0.5000000000000000  0.5000000000000000  0.3819791379999984   F   F   F
  0.7500000000000000  0.5000000000000000  0.3819791379999984   F   F   F
  0.0000000000000000  0.5000000000000000  0.3819791379999984   F   F   F
  0.2500000000000000  0.5000000000000000  0.3819791379999984   F   F   F
  0.5000000000000000  0.7500000000000000  0.3819791379999984   F   F   F
  0.7500000000000000  0.7500000000000000  0.3819791379999984   F   F   F
  0.0000000000000000  0.7500000000000000  0.3819791379999984   F   F   F
  0.2500000599999979  0.7500000000000000  0.3819791379999984   F   F   F
  0.5000000000000000  0.0000000000000000  0.3819791379999984   F   F   F
  0.7500000000000000  0.0000000000000000  0.3819791379999984   F   F   F
  0.0000000000000000  0.0000000000000000  0.3819791379999984   F   F   F
  0.2500000000000000  0.0000000000000000  0.3819791379999984   F   F   F
  0.5000000000000000  0.2500000000000000  0.3819791379999984   F   F   F
  0.7500000000000000  0.2500000000000000  0.3819791379999984   F   F   F
  0.0000000000000000  0.2500000000000000  0.3819791379999984   F   F   F
  0.2500000000000000  0.2500000000000000  0.3819791379999984   F   F   F
  0.5833333129999971  0.5833333129999971  0.4606597419999972   F   F   F
  0.8333333730000021  0.5833333129999971  0.4606597419999972   F   F   F
  0.0833333129999971  0.5833333129999971  0.4606597419999972   F   F   F
  0.3333333730000021  0.5833333129999971  0.4606597419999972   F   F   F
  0.5833333730000021  0.8333333129999971  0.4606597419999972   F   F   F
  0.8333333730000021  0.8333333129999971  0.4606597419999972   F   F   F
  0.0833333730000021  0.8333333129999971  0.4606597419999972   F   F   F
  0.3333333730000021  0.8333333129999971  0.4606597419999972   F   F   F
  0.5833333730000021  0.0833333129999971  0.4606597419999972   F   F   F
  0.8333333129999971  0.0833333129999971  0.4606597419999972   F   F   F
  0.0833333730000021  0.0833333129999971  0.4606597419999972   F   F   F
  0.3333333129999971  0.0833333129999971  0.4606597419999972   F   F   F
  0.5833333129999971  0.3333333730000021  0.4606597419999972   F   F   F
  0.8333333730000021  0.3333333730000021  0.4606597419999972   F   F   F
  0.0833333129999971  0.3333333730000021  0.4606597419999972   F   F   F
  0.3333333129999971  0.3333333730000021  0.4606597419999972   F   F   F
  0.4183462056454417  0.6669723043924591  0.5396364994488749   F   F   F
  0.6687927290263289  0.6662631800272507  0.5388125468266551   F   F   F
  0.9189467900749833  0.6667358320452834  0.5382807037210640   F   F   F
  0.1697813509294335  0.6670874722514384  0.5391976269475336   F   F   F
  0.4184304884295713  0.9160448421546690  0.5389764741650325   F   F   F
  0.6677516238908296  0.9173793107417509  0.5385619116133071   F   F   F
  0.9188537309806506  0.9169173324955153  0.5387614786246431   F   F   F
  0.1697686621092416  0.9141382851191437  0.5399686611198007   F   F   F
  0.4168843260089190  0.1674248544419186  0.5381858969660911   F   F   F
  0.6681881768543079  0.1669824844330634  0.5385499090133976   F   F   F
  0.9183351275753040  0.1668588714235568  0.5383816343561776   F   F   F
  0.1669512758482128  0.1669493789955823  0.5383715031547283   F   F   F
  0.4178485308916251  0.4167082233875306  0.5380949445254828   F   F   F
  0.6660209233477730  0.4188578783943981  0.5401656388146705   F   F   F
  0.9154729672884017  0.4180954721305099  0.5396235805707050   F   F   F
  0.1679061627878227  0.4173891210280658  0.5387859021410009   F   F   F
  0.4995283801076980  0.4914540152763109  0.6179420065784669   F   F   F
  0.7531569998740224  0.5007641648259238  0.6202920327146728   F   F   F
  0.0024656635554194  0.5008824692419438  0.6173027211374489   F   F   F
  0.2506483938951831  0.4981217488000098  0.6174742271475182   F   F   F
  0.5052697653460285  0.7571009671860267  0.6166344786022648   F   F   F
  0.7570580342852864  0.7530530086376643  0.6161145992208930   F   F   F
  0.0034036142369374  0.7509344844082904  0.6169339176991713   F   F   F
  0.2555359629337062  0.7499460399173827  0.6226888674608873   F   F   F
  0.5023166192367725  0.0031187359109879  0.6168958672836879   F   F   F
  0.7536833186788812  0.0005855326909341  0.6176775557320227   F   F   F
  0.0036835188583524  0.9996950559101592  0.6173661692677896   F   F   F
  0.2512217434325237  0.0031180762168717  0.6171503703332633   F   F   F
  0.5027533074182813  0.2462024876620603  0.6166389625825062   F   F   F
  0.7540115897323645  0.2476194059187478  0.6168870402735678   F   F   F
  0.0011357542779891  0.2509217242514481  0.6175734355834877   F   F   F
  0.2511756188745693  0.2504234404960002  0.6171944285661723   F   F   F
  0.5041010748176973  0.6039044477709652  0.7042186187154087   T   T   T
  0.3750890946899617  0.6138918908599251  0.6813183211892095   T   T   T
  0.3121748618289502  0.5778711519921416  0.7065198273762263   T   T   T
  0.5358602535536079  0.5583289051722176  0.7433881700053249   T   T   T
  0.5983622120422752  0.6440256672613742  0.6831322250714149   T   T   T
 
  0.00000000E+00  0.00000000E+00  0.00000000E+00
  0.00000000E+00  0.00000000E+00  0.00000000E+00
  0.00000000E+00  0.00000000E+00  0.00000000E+00
  0.00000000E+00  0.00000000E+00  0.00000000E+00
  0.00000000E+00  0.00000000E+00  0.00000000E+00
  0.00000000E+00  0.00000000E+00  0.00000000E+00
  0.00000000E+00  0.00000000E+00  0.00000000E+00
  0.00000000E+00  0.00000000E+00  0.00000000E+00
  0.00000000E+00  0.00000000E+00  0.00000000E+00
  0.00000000E+00  0.00000000E+00  0.00000000E+00
  0.00000000E+00  0.00000000E+00  0.00000000E+00
  0.00000000E+00  0.00000000E+00  0.00000000E+00
  0.00000000E+00  0.00000000E+00  0.00000000E+00
  0.00000000E+00  0.00000000E+00  0.00000000E+00
  0.00000000E+00  0.00000000E+00  0.00000000E+00
  0.00000000E+00  0.00000000E+00  0.00000000E+00
  0.00000000E+00  0.00000000E+00  0.00000000E+00
  0.00000000E+00  0.00000000E+00  0.00000000E+00
  0.00000000E+00  0.00000000E+00  0.00000000E+00
  0.00000000E+00  0.00000000E+00  0.00000000E+00
  0.00000000E+00  0.00000000E+00  0.00000000E+00
  0.00000000E+00  0.00000000E+00  0.00000000E+00
  0.00000000E+00  0.00000000E+00  0.00000000E+00
  0.00000000E+00  0.00000000E+00  0.00000000E+00
  0.00000000E+00  0.00000000E+00  0.00000000E+00
  0.00000000E+00  0.00000000E+00  0.00000000E+00
  0.00000000E+00  0.00000000E+00  0.00000000E+00
  0.00000000E+00  0.00000000E+00  0.00000000E+00
  0.00000000E+00  0.00000000E+00  0.00000000E+00
  0.00000000E+00  0.00000000E+00  0.00000000E+00
  0.00000000E+00  0.00000000E+00  0.00000000E+00
  0.00000000E+00  0.00000000E+00  0.00000000E+00
  0.00000000E+00  0.00000000E+00  0.00000000E+00
  0.00000000E+00  0.00000000E+00  0.00000000E+00
  0.00000000E+00  0.00000000E+00  0.00000000E+00
  0.00000000E+00  0.00000000E+00  0.00000000E+00
  0.00000000E+00  0.00000000E+00  0.00000000E+00
  0.00000000E+00  0.00000000E+00  0.00000000E+00
  0.00000000E+00  0.00000000E+00  0.00000000E+00
  0.00000000E+00  0.00000000E+00  0.00000000E+00
  0.00000000E+00  0.00000000E+00  0.00000000E+00
  0.00000000E+00  0.00000000E+00  0.00000000E+00
  0.00000000E+00  0.00000000E+00  0.00000000E+00
  0.00000000E+00  0.00000000E+00  0.00000000E+00
  0.00000000E+00  0.00000000E+00  0.00000000E+00
  0.00000000E+00  0.00000000E+00  0.00000000E+00
  0.00000000E+00  0.00000000E+00  0.00000000E+00
  0.00000000E+00  0.00000000E+00  0.00000000E+00
  0.00000000E+00  0.00000000E+00  0.00000000E+00
  0.00000000E+00  0.00000000E+00  0.00000000E+00
  0.00000000E+00  0.00000000E+00  0.00000000E+00
  0.00000000E+00  0.00000000E+00  0.00000000E+00
  0.00000000E+00  0.00000000E+00  0.00000000E+00
  0.00000000E+00  0.00000000E+00  0.00000000E+00
  0.00000000E+00  0.00000000E+00  0.00000000E+00
  0.00000000E+00  0.00000000E+00  0.00000000E+00
  0.00000000E+00  0.00000000E+00  0.00000000E+00
  0.00000000E+00  0.00000000E+00  0.00000000E+00
  0.00000000E+00  0.00000000E+00  0.00000000E+00
  0.00000000E+00  0.00000000E+00  0.00000000E+00
  0.00000000E+00  0.00000000E+00  0.00000000E+00
  0.00000000E+00  0.00000000E+00  0.00000000E+00
  0.00000000E+00  0.00000000E+00  0.00000000E+00
  0.00000000E+00  0.00000000E+00  0.00000000E+00
  0.00000000E+00  0.00000000E+00  0.00000000E+00
  0.00000000E+00  0.00000000E+00  0.00000000E+00
  0.00000000E+00  0.00000000E+00  0.00000000E+00
  0.00000000E+00  0.00000000E+00  0.00000000E+00
  0.00000000E+00  0.00000000E+00  0.00000000E+00
