Cu  O  C                                
   1.00000000000000     
    10.0909824370999992    0.0000000000000000    0.0000000000000000
     5.0454912185999996    8.7390471397000002    0.0000000000000000
     0.0000000000000000    0.0000000000000000   26.1794395446999992
   Cu   O    C    H 
    64     2     2     1
Selective dynamics
Direct
  0.5000000000000000  0.5000000000000000  0.3819791379999984   F   F   F
  0.7500000000000000  0.5000000000000000  0.3819791379999984   F   F   F
  0.0000000000000000  0.5000000000000000  0.3819791379999984   F   F   F
  0.2500000000000000  0.5000000000000000  0.3819791379999984   F   F   F
  0.5000000000000000  0.7500000000000000  0.3819791379999984   F   F   F
  0.7500000000000000  0.7500000000000000  0.3819791379999984   F   F   F
  0.0000000000000000  0.7500000000000000  0.3819791379999984   F   F   F
  0.2500000599999979  0.7500000000000000  0.3819791379999984   F   F   F
  0.5000000000000000  0.0000000000000000  0.3819791379999984   F   F   F
  0.7500000000000000  0.0000000000000000  0.3819791379999984   F   F   F
  0.0000000000000000  0.0000000000000000  0.3819791379999984   F   F   F
  0.2500000000000000  0.0000000000000000  0.3819791379999984   F   F   F
  0.5000000000000000  0.2500000000000000  0.3819791379999984   F   F   F
  0.7500000000000000  0.2500000000000000  0.3819791379999984   F   F   F
  0.0000000000000000  0.2500000000000000  0.3819791379999984   F   F   F
  0.2500000000000000  0.2500000000000000  0.3819791379999984   F   F   F
  0.5833333129999971  0.5833333129999971  0.4606597419999972   F   F   F
  0.8333333730000021  0.5833333129999971  0.4606597419999972   F   F   F
  0.0833333129999971  0.5833333129999971  0.4606597419999972   F   F   F
  0.3333333730000021  0.5833333129999971  0.4606597419999972   F   F   F
  0.5833333730000021  0.8333333129999971  0.4606597419999972   F   F   F
  0.8333333730000021  0.8333333129999971  0.4606597419999972   F   F   F
  0.0833333730000021  0.8333333129999971  0.4606597419999972   F   F   F
  0.3333333730000021  0.8333333129999971  0.4606597419999972   F   F   F
  0.5833333730000021  0.0833333129999971  0.4606597419999972   F   F   F
  0.8333333129999971  0.0833333129999971  0.4606597419999972   F   F   F
  0.0833333730000021  0.0833333129999971  0.4606597419999972   F   F   F
  0.3333333129999971  0.0833333129999971  0.4606597419999972   F   F   F
  0.5833333129999971  0.3333333730000021  0.4606597419999972   F   F   F
  0.8333333730000021  0.3333333730000021  0.4606597419999972   F   F   F
  0.0833333129999971  0.3333333730000021  0.4606597419999972   F   F   F
  0.3333333129999971  0.3333333730000021  0.4606597419999972   F   F   F
  0.4172562369370212  0.6660180338395847  0.5390173009070338   F   F   F
  0.6660297788844431  0.6657750589702687  0.5396369819253550   F   F   F
  0.9171607350579691  0.6651516945229687  0.5384857274960027   F   F   F
  0.1678847752292398  0.6651704840914405  0.5388876167663028   F   F   F
  0.4184454112565632  0.9124822177051328  0.5397634314702273   F   F   F
  0.6667443895180227  0.9154920909148245  0.5387293280172969   F   F   F
  0.9171070055016699  0.9156207930750142  0.5387118982989207   F   F   F
  0.1679687781480794  0.9144859204628801  0.5391542986921465   F   F   F
  0.4170939374414857  0.1646499726721871  0.5384232306539971   F   F   F
  0.6672188263763132  0.1654441131001434  0.5384932212673874   F   F   F
  0.9178082661358360  0.1651586712478874  0.5385328184183393   F   F   F
  0.1680705499135868  0.1643759615331888  0.5385608511381648   F   F   F
  0.4175683343530991  0.4157837818251764  0.5386195570546448   F   F   F
  0.6678682489375447  0.4161035838721148  0.5388044439632793   F   F   F
  0.9160655801963529  0.4160317197482541  0.5392034868999147   F   F   F
  0.1674616113182879  0.4146211731051253  0.5383832334685010   F   F   F
  0.5030420045579689  0.4943333216402266  0.6164955018891334   F   F   F
  0.7543703551562402  0.4946984088345729  0.6186700812787791   F   F   F
  0.0021678244425019  0.4973854748046733  0.6169124511831257   F   F   F
  0.2505575939299618  0.4959970371138667  0.6167236762875348   F   F   F
  0.4979665185763977  0.7466601809248914  0.6219232756372364   F   F   F
  0.7524683474073015  0.7494427112778297  0.6166195020996668   F   F   F
  0.0001938644846362  0.7482143864804769  0.6171034394528476   F   F   F
  0.2486817379227517  0.7470909486857096  0.6183200806308733   F   F   F
  0.5009469962073467  0.9969418595095192  0.6173952628760162   F   F   F
  0.7507473113756973  0.9982166484745960  0.6175071553158773   F   F   F
  0.0008986889452487  0.9977716904758438  0.6174709646527958   F   F   F
  0.2507512528300921  0.9973877242337892  0.6177271480886191   F   F   F
  0.5011003705853696  0.2464876263067737  0.6168642818484145   F   F   F
  0.7521773417073518  0.2454587358071620  0.6168642832420232   F   F   F
  0.0024636296160665  0.2463998689403013  0.6172043444331266   F   F   F
  0.2515042575740551  0.2468732569191019  0.6173082653736017   F   F   F
  0.6958578280665861  0.5955342711073470  0.7052745708133372   T   T   T
  0.3400580051813478  0.6127551573238179  0.7080796547315202   T   T   T
  0.5672956197932066  0.6292614159096530  0.6874631908765778   T   T   T
  0.4620948840815302  0.6018241758440084  0.7216727142152379   T   T   T
  0.5037040549773195  0.5711203673119911  0.7611081453731755   T   T   T
 
  0.00000000E+00  0.00000000E+00  0.00000000E+00
  0.00000000E+00  0.00000000E+00  0.00000000E+00
  0.00000000E+00  0.00000000E+00  0.00000000E+00
  0.00000000E+00  0.00000000E+00  0.00000000E+00
  0.00000000E+00  0.00000000E+00  0.00000000E+00
  0.00000000E+00  0.00000000E+00  0.00000000E+00
  0.00000000E+00  0.00000000E+00  0.00000000E+00
  0.00000000E+00  0.00000000E+00  0.00000000E+00
  0.00000000E+00  0.00000000E+00  0.00000000E+00
  0.00000000E+00  0.00000000E+00  0.00000000E+00
  0.00000000E+00  0.00000000E+00  0.00000000E+00
  0.00000000E+00  0.00000000E+00  0.00000000E+00
  0.00000000E+00  0.00000000E+00  0.00000000E+00
  0.00000000E+00  0.00000000E+00  0.00000000E+00
  0.00000000E+00  0.00000000E+00  0.00000000E+00
  0.00000000E+00  0.00000000E+00  0.00000000E+00
  0.00000000E+00  0.00000000E+00  0.00000000E+00
  0.00000000E+00  0.00000000E+00  0.00000000E+00
  0.00000000E+00  0.00000000E+00  0.00000000E+00
  0.00000000E+00  0.00000000E+00  0.00000000E+00
  0.00000000E+00  0.00000000E+00  0.00000000E+00
  0.00000000E+00  0.00000000E+00  0.00000000E+00
  0.00000000E+00  0.00000000E+00  0.00000000E+00
  0.00000000E+00  0.00000000E+00  0.00000000E+00
  0.00000000E+00  0.00000000E+00  0.00000000E+00
  0.00000000E+00  0.00000000E+00  0.00000000E+00
  0.00000000E+00  0.00000000E+00  0.00000000E+00
  0.00000000E+00  0.00000000E+00  0.00000000E+00
  0.00000000E+00  0.00000000E+00  0.00000000E+00
  0.00000000E+00  0.00000000E+00  0.00000000E+00
  0.00000000E+00  0.00000000E+00  0.00000000E+00
  0.00000000E+00  0.00000000E+00  0.00000000E+00
  0.00000000E+00  0.00000000E+00  0.00000000E+00
  0.00000000E+00  0.00000000E+00  0.00000000E+00
  0.00000000E+00  0.00000000E+00  0.00000000E+00
  0.00000000E+00  0.00000000E+00  0.00000000E+00
  0.00000000E+00  0.00000000E+00  0.00000000E+00
  0.00000000E+00  0.00000000E+00  0.00000000E+00
  0.00000000E+00  0.00000000E+00  0.00000000E+00
  0.00000000E+00  0.00000000E+00  0.00000000E+00
  0.00000000E+00  0.00000000E+00  0.00000000E+00
  0.00000000E+00  0.00000000E+00  0.00000000E+00
  0.00000000E+00  0.00000000E+00  0.00000000E+00
  0.00000000E+00  0.00000000E+00  0.00000000E+00
  0.00000000E+00  0.00000000E+00  0.00000000E+00
  0.00000000E+00  0.00000000E+00  0.00000000E+00
  0.00000000E+00  0.00000000E+00  0.00000000E+00
  0.00000000E+00  0.00000000E+00  0.00000000E+00
  0.00000000E+00  0.00000000E+00  0.00000000E+00
  0.00000000E+00  0.00000000E+00  0.00000000E+00
  0.00000000E+00  0.00000000E+00  0.00000000E+00
  0.00000000E+00  0.00000000E+00  0.00000000E+00
  0.00000000E+00  0.00000000E+00  0.00000000E+00
  0.00000000E+00  0.00000000E+00  0.00000000E+00
  0.00000000E+00  0.00000000E+00  0.00000000E+00
  0.00000000E+00  0.00000000E+00  0.00000000E+00
  0.00000000E+00  0.00000000E+00  0.00000000E+00
  0.00000000E+00  0.00000000E+00  0.00000000E+00
  0.00000000E+00  0.00000000E+00  0.00000000E+00
  0.00000000E+00  0.00000000E+00  0.00000000E+00
  0.00000000E+00  0.00000000E+00  0.00000000E+00
  0.00000000E+00  0.00000000E+00  0.00000000E+00
  0.00000000E+00  0.00000000E+00  0.00000000E+00
  0.00000000E+00  0.00000000E+00  0.00000000E+00
  0.00000000E+00  0.00000000E+00  0.00000000E+00
  0.00000000E+00  0.00000000E+00  0.00000000E+00
  0.00000000E+00  0.00000000E+00  0.00000000E+00
  0.00000000E+00  0.00000000E+00  0.00000000E+00
  0.00000000E+00  0.00000000E+00  0.00000000E+00
