Cu  O  C                                
   1.00000000000000     
    10.0909824370999992    0.0000000000000000    0.0000000000000000
     5.0454912185999996    8.7390471397000002    0.0000000000000000
     0.0000000000000000    0.0000000000000000   26.1794395446999992
   Cu   C    H    O 
    64     2     6     1
Selective dynamics
Direct
  0.5000000000000000  0.5000000000000000  0.3819791379999984   F   F   F
  0.7500000000000000  0.5000000000000000  0.3819791379999984   F   F   F
  0.0000000000000000  0.5000000000000000  0.3819791379999984   F   F   F
  0.2500000000000000  0.5000000000000000  0.3819791379999984   F   F   F
  0.5000000000000000  0.7500000000000000  0.3819791379999984   F   F   F
  0.7500000000000000  0.7500000000000000  0.3819791379999984   F   F   F
  0.0000000000000000  0.7500000000000000  0.3819791379999984   F   F   F
  0.2500000599999979  0.7500000000000000  0.3819791379999984   F   F   F
  0.5000000000000000  0.0000000000000000  0.3819791379999984   F   F   F
  0.7500000000000000  0.0000000000000000  0.3819791379999984   F   F   F
  0.0000000000000000  0.0000000000000000  0.3819791379999984   F   F   F
  0.2500000000000000  0.0000000000000000  0.3819791379999984   F   F   F
  0.5000000000000000  0.2500000000000000  0.3819791379999984   F   F   F
  0.7500000000000000  0.2500000000000000  0.3819791379999984   F   F   F
  0.0000000000000000  0.2500000000000000  0.3819791379999984   F   F   F
  0.2500000000000000  0.2500000000000000  0.3819791379999984   F   F   F
  0.5833333129999971  0.5833333129999971  0.4606597419999972   F   F   F
  0.8333333730000021  0.5833333129999971  0.4606597419999972   F   F   F
  0.0833333129999971  0.5833333129999971  0.4606597419999972   F   F   F
  0.3333333730000021  0.5833333129999971  0.4606597419999972   F   F   F
  0.5833333730000021  0.8333333129999971  0.4606597419999972   F   F   F
  0.8333333730000021  0.8333333129999971  0.4606597419999972   F   F   F
  0.0833333730000021  0.8333333129999971  0.4606597419999972   F   F   F
  0.3333333730000021  0.8333333129999971  0.4606597419999972   F   F   F
  0.5833333730000021  0.0833333129999971  0.4606597419999972   F   F   F
  0.8333333129999971  0.0833333129999971  0.4606597419999972   F   F   F
  0.0833333730000021  0.0833333129999971  0.4606597419999972   F   F   F
  0.3333333129999971  0.0833333129999971  0.4606597419999972   F   F   F
  0.5833333129999971  0.3333333730000021  0.4606597419999972   F   F   F
  0.8333333730000021  0.3333333730000021  0.4606597419999972   F   F   F
  0.0833333129999971  0.3333333730000021  0.4606597419999972   F   F   F
  0.3333333129999971  0.3333333730000021  0.4606597419999972   F   F   F
  0.4173512542479827  0.6664205600305735  0.5390068188433546   F   F   F
  0.6672182216287013  0.6665048561597189  0.5389427015635420   F   F   F
  0.9172660246421458  0.6665128423727893  0.5388111406774669   F   F   F
  0.1673842071396621  0.6664467523997359  0.5388676235525764   F   F   F
  0.4173104405757329  0.9164215131847939  0.5388772638201971   F   F   F
  0.6672867337988961  0.9164814180776446  0.5388105245640773   F   F   F
  0.9173387325374520  0.9164728229202908  0.5387815409428356   F   F   F
  0.1673834716789599  0.9163949010065764  0.5388489947425299   F   F   F
  0.4172768820365178  0.1664869094148571  0.5388055269563239   F   F   F
  0.6672564563719732  0.1665438019606427  0.5388216872799134   F   F   F
  0.9172335127832696  0.1665316503875687  0.5388151514682704   F   F   F
  0.1672556736914004  0.1664821747241163  0.5387984128675640   F   F   F
  0.4172797323852606  0.4165202670141994  0.5389188372273352   F   F   F
  0.6671835204416254  0.4165650061562971  0.5389608827427210   F   F   F
  0.9171756928314849  0.4165579772809451  0.5388402871371696   F   F   F
  0.1672575066136659  0.4165245332757266  0.5388168870553827   F   F   F
  0.5008764454072221  0.4996740823765862  0.6179828166475758   F   F   F
  0.7509353926333802  0.4997431369673890  0.6178523498075847   F   F   F
  0.0008909161250088  0.4997825097403137  0.6176818429153315   F   F   F
  0.2508513675434330  0.4996982909477907  0.6177825757715993   F   F   F
  0.5008967735175034  0.7498084307634088  0.6179217152635204   F   F   F
  0.7509689002293101  0.7498040098213679  0.6177295567029404   F   F   F
  0.0009326420961955  0.7497662715776272  0.6176679729000654   F   F   F
  0.2508523016108626  0.7497640921235273  0.6178520794863900   F   F   F
  0.5009541909475317  0.9997778738140255  0.6176876729732470   F   F   F
  0.7510157890956606  0.9997139493376537  0.6176334204299323   F   F   F
  0.0009470850141753  0.9997513995044329  0.6176488509754279   F   F   F
  0.2508839367395268  0.9998168951316799  0.6177119413584435   F   F   F
  0.5009261774906335  0.2496450913567543  0.6177203879945097   F   F   F
  0.7509516999840713  0.2496601099912183  0.6177538040883519   F   F   F
  0.0009150029351446  0.2497614550216980  0.6176675343362206   F   F   F
  0.2508807881498996  0.2497514357828265  0.6176497474223765   F   F   F
  0.5614833566406006  0.5819303498633133  0.8718876711703345   T   T   T
  0.4106928178219320  0.5840174823528201  0.8668545242382635   T   T   T
  0.3602381179052685  0.5915294804349358  0.9047000726493692   T   T   T
  0.3296719354274629  0.6836989219578129  0.8442729769727535   T   T   T
  0.4260683237650653  0.4804616740627381  0.8476523775478313   T   T   T
  0.5468445818369148  0.6776132703205278  0.8963938952714656   T   T   T
  0.6485356943453908  0.4742377262780977  0.8900052704795982   T   T   T
  0.7080343931107294  0.5918457034652604  0.8242586101337537   T   T   T
  0.6099151331538691  0.5960905018583702  0.8209291312976928   T   T   T
 
  0.00000000E+00  0.00000000E+00  0.00000000E+00
  0.00000000E+00  0.00000000E+00  0.00000000E+00
  0.00000000E+00  0.00000000E+00  0.00000000E+00
  0.00000000E+00  0.00000000E+00  0.00000000E+00
  0.00000000E+00  0.00000000E+00  0.00000000E+00
  0.00000000E+00  0.00000000E+00  0.00000000E+00
  0.00000000E+00  0.00000000E+00  0.00000000E+00
  0.00000000E+00  0.00000000E+00  0.00000000E+00
  0.00000000E+00  0.00000000E+00  0.00000000E+00
  0.00000000E+00  0.00000000E+00  0.00000000E+00
  0.00000000E+00  0.00000000E+00  0.00000000E+00
  0.00000000E+00  0.00000000E+00  0.00000000E+00
  0.00000000E+00  0.00000000E+00  0.00000000E+00
  0.00000000E+00  0.00000000E+00  0.00000000E+00
  0.00000000E+00  0.00000000E+00  0.00000000E+00
  0.00000000E+00  0.00000000E+00  0.00000000E+00
  0.00000000E+00  0.00000000E+00  0.00000000E+00
  0.00000000E+00  0.00000000E+00  0.00000000E+00
  0.00000000E+00  0.00000000E+00  0.00000000E+00
  0.00000000E+00  0.00000000E+00  0.00000000E+00
  0.00000000E+00  0.00000000E+00  0.00000000E+00
  0.00000000E+00  0.00000000E+00  0.00000000E+00
  0.00000000E+00  0.00000000E+00  0.00000000E+00
  0.00000000E+00  0.00000000E+00  0.00000000E+00
  0.00000000E+00  0.00000000E+00  0.00000000E+00
  0.00000000E+00  0.00000000E+00  0.00000000E+00
  0.00000000E+00  0.00000000E+00  0.00000000E+00
  0.00000000E+00  0.00000000E+00  0.00000000E+00
  0.00000000E+00  0.00000000E+00  0.00000000E+00
  0.00000000E+00  0.00000000E+00  0.00000000E+00
  0.00000000E+00  0.00000000E+00  0.00000000E+00
  0.00000000E+00  0.00000000E+00  0.00000000E+00
  0.00000000E+00  0.00000000E+00  0.00000000E+00
  0.00000000E+00  0.00000000E+00  0.00000000E+00
  0.00000000E+00  0.00000000E+00  0.00000000E+00
  0.00000000E+00  0.00000000E+00  0.00000000E+00
  0.00000000E+00  0.00000000E+00  0.00000000E+00
  0.00000000E+00  0.00000000E+00  0.00000000E+00
  0.00000000E+00  0.00000000E+00  0.00000000E+00
  0.00000000E+00  0.00000000E+00  0.00000000E+00
  0.00000000E+00  0.00000000E+00  0.00000000E+00
  0.00000000E+00  0.00000000E+00  0.00000000E+00
  0.00000000E+00  0.00000000E+00  0.00000000E+00
  0.00000000E+00  0.00000000E+00  0.00000000E+00
  0.00000000E+00  0.00000000E+00  0.00000000E+00
  0.00000000E+00  0.00000000E+00  0.00000000E+00
  0.00000000E+00  0.00000000E+00  0.00000000E+00
  0.00000000E+00  0.00000000E+00  0.00000000E+00
  0.00000000E+00  0.00000000E+00  0.00000000E+00
  0.00000000E+00  0.00000000E+00  0.00000000E+00
  0.00000000E+00  0.00000000E+00  0.00000000E+00
  0.00000000E+00  0.00000000E+00  0.00000000E+00
  0.00000000E+00  0.00000000E+00  0.00000000E+00
  0.00000000E+00  0.00000000E+00  0.00000000E+00
  0.00000000E+00  0.00000000E+00  0.00000000E+00
  0.00000000E+00  0.00000000E+00  0.00000000E+00
  0.00000000E+00  0.00000000E+00  0.00000000E+00
  0.00000000E+00  0.00000000E+00  0.00000000E+00
  0.00000000E+00  0.00000000E+00  0.00000000E+00
  0.00000000E+00  0.00000000E+00  0.00000000E+00
  0.00000000E+00  0.00000000E+00  0.00000000E+00
  0.00000000E+00  0.00000000E+00  0.00000000E+00
  0.00000000E+00  0.00000000E+00  0.00000000E+00
  0.00000000E+00  0.00000000E+00  0.00000000E+00
  0.00000000E+00  0.00000000E+00  0.00000000E+00
  0.00000000E+00  0.00000000E+00  0.00000000E+00
  0.00000000E+00  0.00000000E+00  0.00000000E+00
  0.00000000E+00  0.00000000E+00  0.00000000E+00
  0.00000000E+00  0.00000000E+00  0.00000000E+00
  0.00000000E+00  0.00000000E+00  0.00000000E+00
  0.00000000E+00  0.00000000E+00  0.00000000E+00
  0.00000000E+00  0.00000000E+00  0.00000000E+00
  0.00000000E+00  0.00000000E+00  0.00000000E+00
