Cu64 H1 C1 O1                           
   1.00000000000000     
    10.0909822868928778    0.0000000000000000    0.0000000000000000
     5.0454911434464389    8.7390470095880204    0.0000000000000000
     0.0000000000000000    0.0000000000000000   26.1794394015877110
   Cu   H    C    O 
    64     1     1     1
Selective dynamics
Direct
  0.0000000000000000  0.0000000000000000  0.3819791496143949   F   F   F
  0.2500000000000000  0.0000000000000000  0.3819791496143949   F   F   F
  0.5000000000000000  0.0000000000000000  0.3819791496143949   F   F   F
  0.7500000000000000  0.0000000000000000  0.3819791496143949   F   F   F
  0.0000000000000000  0.2500000000000000  0.3819791496143949   F   F   F
  0.2500000000000000  0.2500000000000000  0.3819791496143949   F   F   F
  0.5000000000000000  0.2500000000000000  0.3819791496143949   F   F   F
  0.7500000000000000  0.2500000000000000  0.3819791496143949   F   F   F
  0.0000000000000000  0.5000000000000000  0.3819791496143949   F   F   F
  0.2500000000000000  0.5000000000000000  0.3819791496143949   F   F   F
  0.5000000000000000  0.5000000000000000  0.3819791496143949   F   F   F
  0.7500000000000000  0.5000000000000000  0.3819791496143949   F   F   F
  0.0000000000000000  0.7500000000000000  0.3819791496143949   F   F   F
  0.2500000000000000  0.7500000000000000  0.3819791496143949   F   F   F
  0.5000000000000000  0.7500000000000000  0.3819791496143949   F   F   F
  0.7500000000000000  0.7500000000000000  0.3819791496143949   F   F   F
  0.0833333333333357  0.0833333333333357  0.4606597165381316   F   F   F
  0.3333333333333357  0.0833333333333357  0.4606597165381316   F   F   F
  0.5833333333333357  0.0833333333333357  0.4606597165381316   F   F   F
  0.8333333333333357  0.0833333333333357  0.4606597165381316   F   F   F
  0.0833333333333357  0.3333333333333357  0.4606597165381316   F   F   F
  0.3333333333333357  0.3333333333333357  0.4606597165381316   F   F   F
  0.5833333333333357  0.3333333333333357  0.4606597165381316   F   F   F
  0.8333333333333357  0.3333333333333357  0.4606597165381316   F   F   F
  0.0833333333333357  0.5833333333333357  0.4606597165381316   F   F   F
  0.3333333333333357  0.5833333333333357  0.4606597165381316   F   F   F
  0.5833333333333357  0.5833333333333357  0.4606597165381316   F   F   F
  0.8333333333333357  0.5833333333333357  0.4606597165381316   F   F   F
  0.0833333333333357  0.8333333333333357  0.4606597165381316   F   F   F
  0.3333333333333357  0.8333333333333357  0.4606597165381316   F   F   F
  0.5833333333333357  0.8333333333333357  0.4606597165381316   F   F   F
  0.8333333333333357  0.8333333333333357  0.4606597165381316   F   F   F
  0.9168285999493690  0.1663428001012477  0.5389520180193443   F   F   F
  0.1663624972521163  0.1663624972521163  0.5392294175982428   F   F   F
  0.4167440691842970  0.1665118616313990  0.5389685413284155   F   F   F
  0.6672750054957532  0.1663624972521163  0.5392294175982428   F   F   F
  0.9166758111235183  0.4164811535471529  0.5386718161535171   F   F   F
  0.1665118616313990  0.4167440691842970  0.5389685413284155   F   F   F
  0.4167440691842970  0.4167440691842970  0.5389685413284155   F   F   F
  0.6668430353293289  0.4164811535471529  0.5386718161535171   F   F   F
  0.9166758111235183  0.6668430353293289  0.5386718161535171   F   F   F
  0.1663624972521163  0.6672750054957532  0.5392294175982428   F   F   F
  0.4164811535471529  0.6668430353293289  0.5386718161535171   F   F   F
  0.6666666666666643  0.6666666666666643  0.5383486844446352   F   F   F
  0.9168285999493690  0.9168285999493690  0.5389520180193443   F   F   F
  0.1663428001012477  0.9168285999493690  0.5389520180193443   F   F   F
  0.4164811535471529  0.9166758111235183  0.5386718161535171   F   F   F
  0.6668430353293289  0.9166758111235183  0.5386718161535171   F   F   F
  0.0000000000000000  0.0000000000000000  0.6163359245730717   F   F   F
  0.2524295723738348  0.9998158553560756  0.6179374401059832   F   F   F
  0.5000449396280757  0.9999101207438486  0.6175261228549402   F   F   F
  0.7477545722700896  0.9998158553560756  0.6179374401059832   F   F   F
  0.9998158553560756  0.2524295723738348  0.6179374401059832   F   F   F
  0.2503206602750438  0.2503206602750438  0.6177343968607900   F   F   F
  0.4993586794499123  0.2503206602750438  0.6177343968607900   F   F   F
  0.7477545722700896  0.2524295723738348  0.6179374401059832   F   F   F
  0.9999101207438486  0.5000449396280757  0.6175261228549402   F   F   F
  0.2503206602750438  0.4993586794499123  0.6177343968607900   F   F   F
  0.5000449396280757  0.5000449396280757  0.6175261228549402   F   F   F
  0.7496058039351681  0.5007883921296568  0.6172354687040453   F   F   F
  0.9998158553560756  0.7477545722700896  0.6179374401059832   F   F   F
  0.2524295723738348  0.7477545722700896  0.6179374401059832   F   F   F
  0.5007883921296568  0.7496058039351681  0.6172354687040453   F   F   F
  0.7496058039351681  0.7496058039351681  0.6172354687040453   F   F   F
  0.0000000000000000  0.0000000000000000  0.7684168343902797   T   T   T
  0.0000000000000000  0.0000000000000000  0.6836993642392883   T   T   T
  0.0000000000000000  0.0000000000000000  0.7309446583047697   T   T   T
 
  0.00000000E+00  0.00000000E+00  0.00000000E+00
  0.00000000E+00  0.00000000E+00  0.00000000E+00
  0.00000000E+00  0.00000000E+00  0.00000000E+00
  0.00000000E+00  0.00000000E+00  0.00000000E+00
  0.00000000E+00  0.00000000E+00  0.00000000E+00
  0.00000000E+00  0.00000000E+00  0.00000000E+00
  0.00000000E+00  0.00000000E+00  0.00000000E+00
  0.00000000E+00  0.00000000E+00  0.00000000E+00
  0.00000000E+00  0.00000000E+00  0.00000000E+00
  0.00000000E+00  0.00000000E+00  0.00000000E+00
  0.00000000E+00  0.00000000E+00  0.00000000E+00
  0.00000000E+00  0.00000000E+00  0.00000000E+00
  0.00000000E+00  0.00000000E+00  0.00000000E+00
  0.00000000E+00  0.00000000E+00  0.00000000E+00
  0.00000000E+00  0.00000000E+00  0.00000000E+00
  0.00000000E+00  0.00000000E+00  0.00000000E+00
  0.00000000E+00  0.00000000E+00  0.00000000E+00
  0.00000000E+00  0.00000000E+00  0.00000000E+00
  0.00000000E+00  0.00000000E+00  0.00000000E+00
  0.00000000E+00  0.00000000E+00  0.00000000E+00
  0.00000000E+00  0.00000000E+00  0.00000000E+00
  0.00000000E+00  0.00000000E+00  0.00000000E+00
  0.00000000E+00  0.00000000E+00  0.00000000E+00
  0.00000000E+00  0.00000000E+00  0.00000000E+00
  0.00000000E+00  0.00000000E+00  0.00000000E+00
  0.00000000E+00  0.00000000E+00  0.00000000E+00
  0.00000000E+00  0.00000000E+00  0.00000000E+00
  0.00000000E+00  0.00000000E+00  0.00000000E+00
  0.00000000E+00  0.00000000E+00  0.00000000E+00
  0.00000000E+00  0.00000000E+00  0.00000000E+00
  0.00000000E+00  0.00000000E+00  0.00000000E+00
  0.00000000E+00  0.00000000E+00  0.00000000E+00
  0.00000000E+00  0.00000000E+00  0.00000000E+00
  0.00000000E+00  0.00000000E+00  0.00000000E+00
  0.00000000E+00  0.00000000E+00  0.00000000E+00
  0.00000000E+00  0.00000000E+00  0.00000000E+00
  0.00000000E+00  0.00000000E+00  0.00000000E+00
  0.00000000E+00  0.00000000E+00  0.00000000E+00
  0.00000000E+00  0.00000000E+00  0.00000000E+00
  0.00000000E+00  0.00000000E+00  0.00000000E+00
  0.00000000E+00  0.00000000E+00  0.00000000E+00
  0.00000000E+00  0.00000000E+00  0.00000000E+00
  0.00000000E+00  0.00000000E+00  0.00000000E+00
  0.00000000E+00  0.00000000E+00  0.00000000E+00
  0.00000000E+00  0.00000000E+00  0.00000000E+00
  0.00000000E+00  0.00000000E+00  0.00000000E+00
  0.00000000E+00  0.00000000E+00  0.00000000E+00
  0.00000000E+00  0.00000000E+00  0.00000000E+00
  0.00000000E+00  0.00000000E+00  0.00000000E+00
  0.00000000E+00  0.00000000E+00  0.00000000E+00
  0.00000000E+00  0.00000000E+00  0.00000000E+00
  0.00000000E+00  0.00000000E+00  0.00000000E+00
  0.00000000E+00  0.00000000E+00  0.00000000E+00
  0.00000000E+00  0.00000000E+00  0.00000000E+00
  0.00000000E+00  0.00000000E+00  0.00000000E+00
  0.00000000E+00  0.00000000E+00  0.00000000E+00
  0.00000000E+00  0.00000000E+00  0.00000000E+00
  0.00000000E+00  0.00000000E+00  0.00000000E+00
  0.00000000E+00  0.00000000E+00  0.00000000E+00
  0.00000000E+00  0.00000000E+00  0.00000000E+00
  0.00000000E+00  0.00000000E+00  0.00000000E+00
  0.00000000E+00  0.00000000E+00  0.00000000E+00
  0.00000000E+00  0.00000000E+00  0.00000000E+00
  0.00000000E+00  0.00000000E+00  0.00000000E+00
  0.00000000E+00  0.00000000E+00  0.00000000E+00
  0.00000000E+00  0.00000000E+00  0.00000000E+00
  0.00000000E+00  0.00000000E+00  0.00000000E+00
