Cu64 H4 C1 O1                           
   1.00000000000000     
    10.0909822868928778    0.0000000000000000    0.0000000000000000
     5.0454911434464389    8.7390470095880204    0.0000000000000000
     0.0000000000000000    0.0000000000000000   26.1794394015877110
   Cu   H    C    O 
    64     4     1     1
Selective dynamics
Direct
  0.0000000000000000  0.0000000000000000  0.3819791496143949   F   F   F
  0.2500000000000000  0.0000000000000000  0.3819791496143949   F   F   F
  0.5000000000000000  0.0000000000000000  0.3819791496143949   F   F   F
  0.7500000000000000  0.0000000000000000  0.3819791496143949   F   F   F
  0.0000000000000000  0.2500000000000000  0.3819791496143949   F   F   F
  0.2500000000000000  0.2500000000000000  0.3819791496143949   F   F   F
  0.5000000000000000  0.2500000000000000  0.3819791496143949   F   F   F
  0.7500000000000000  0.2500000000000000  0.3819791496143949   F   F   F
  0.0000000000000000  0.5000000000000000  0.3819791496143949   F   F   F
  0.2500000000000000  0.5000000000000000  0.3819791496143949   F   F   F
  0.5000000000000000  0.5000000000000000  0.3819791496143949   F   F   F
  0.7500000000000000  0.5000000000000000  0.3819791496143949   F   F   F
  0.0000000000000000  0.7500000000000000  0.3819791496143949   F   F   F
  0.2500000000000000  0.7500000000000000  0.3819791496143949   F   F   F
  0.5000000000000000  0.7500000000000000  0.3819791496143949   F   F   F
  0.7500000000000000  0.7500000000000000  0.3819791496143949   F   F   F
  0.0833333333333357  0.0833333333333357  0.4606597165381316   F   F   F
  0.3333333333333357  0.0833333333333357  0.4606597165381316   F   F   F
  0.5833333333333357  0.0833333333333357  0.4606597165381316   F   F   F
  0.8333333333333357  0.0833333333333357  0.4606597165381316   F   F   F
  0.0833333333333357  0.3333333333333357  0.4606597165381316   F   F   F
  0.3333333333333357  0.3333333333333357  0.4606597165381316   F   F   F
  0.5833333333333357  0.3333333333333357  0.4606597165381316   F   F   F
  0.8333333333333357  0.3333333333333357  0.4606597165381316   F   F   F
  0.0833333333333357  0.5833333333333357  0.4606597165381316   F   F   F
  0.3333333333333357  0.5833333333333357  0.4606597165381316   F   F   F
  0.5833333333333357  0.5833333333333357  0.4606597165381316   F   F   F
  0.8333333333333357  0.5833333333333357  0.4606597165381316   F   F   F
  0.0833333333333357  0.8333333333333357  0.4606597165381316   F   F   F
  0.3333333333333357  0.8333333333333357  0.4606597165381316   F   F   F
  0.5833333333333357  0.8333333333333357  0.4606597165381316   F   F   F
  0.8333333333333357  0.8333333333333357  0.4606597165381316   F   F   F
  0.9166669302576906  0.1666655943406283  0.5390478771009484   F   F   F
  0.1666661179867575  0.1666659389186336  0.5390467870113014   F   F   F
  0.4166665461189325  0.1666666237194079  0.5390482613028738   F   F   F
  0.6666680546007910  0.1666669322079315  0.5390492250986867   F   F   F
  0.9166666876252947  0.4166644871045477  0.5390492934482722   F   F   F
  0.1666669061308923  0.4166666861824382  0.5390515536420040   F   F   F
  0.4166672735803090  0.4166669597424573  0.5390494574315881   F   F   F
  0.6666676444258286  0.4166651542728772  0.5390476878482744   F   F   F
  0.9166678495935159  0.6666679337672861  0.5390547516292372   F   F   F
  0.1666653631757953  0.6666693923945317  0.5390546795429003   F   F   F
  0.4166656000562980  0.6666671919268907  0.5390479775870816   F   F   F
  0.6666659783424080  0.6666661268138938  0.5390486579606275   F   F   F
  0.9166686873081247  0.9166670339471068  0.5390544739749075   F   F   F
  0.1666648327657256  0.9166669087746513  0.5390490918241326   F   F   F
  0.4166649260367024  0.9166675613314297  0.5390466299220904   F   F   F
  0.6666670340770864  0.9166675454281332  0.5390507289183475   F   F   F
  0.0000041569093483  0.0000104185955365  0.6180533344284029   F   F   F
  0.2499945317277295  0.0000006829959744  0.6180460724927244   F   F   F
  0.4999932329034777  0.0000003096272039  0.6180426173249600   F   F   F
  0.7499977959094153  0.0000091846604420  0.6180462139151075   F   F   F
  0.0000019228484689  0.2499882056773117  0.6180461111342126   F   F   F
  0.2499999292874833  0.2499901025553797  0.6180432091776353   F   F   F
  0.5000039795087829  0.2499985332517767  0.6180426191949451   F   F   F
  0.7500072375491982  0.2499970344304927  0.6180463396031399   F   F   F
  0.9999994830896100  0.4999904483674484  0.6180431328449814   F   F   F
  0.2500083715546211  0.4999954170294671  0.6180442454781527   F   F   F
  0.5000035940328260  0.5000012350927463  0.6180425188736081   F   F   F
  0.7499977893450378  0.4999948802881562  0.6180429244452483   F   F   F
  0.0000009892572450  0.7500078603640503  0.6180522338194407   F   F   F
  0.2500037747298265  0.7500103126974764  0.6180480808627848   F   F   F
  0.4999928088812595  0.7500034671834754  0.6180426718038348   F   F   F
  0.7499906152836644  0.7500023267236671  0.6180429397636544   F   F   F
  0.8775676174524989  0.0357598232753702  0.8471949753647081   T   T   T
  0.1908190158577341  0.8026527110207979  0.8471915753852599   T   T   T
  0.0241238705133284  0.0480039116592579  0.8815027058314726   T   T   T
  0.0241110961380713  0.0480153641646837  0.8128719527155894   T   T   T
  0.9996268825821488  0.0003369985771045  0.8472085380168863   T   T   T
  0.0821610251285989  0.8365485508155786  0.8466123654441072   T   T   T
 
  0.00000000E+00  0.00000000E+00  0.00000000E+00
  0.00000000E+00  0.00000000E+00  0.00000000E+00
  0.00000000E+00  0.00000000E+00  0.00000000E+00
  0.00000000E+00  0.00000000E+00  0.00000000E+00
  0.00000000E+00  0.00000000E+00  0.00000000E+00
  0.00000000E+00  0.00000000E+00  0.00000000E+00
  0.00000000E+00  0.00000000E+00  0.00000000E+00
  0.00000000E+00  0.00000000E+00  0.00000000E+00
  0.00000000E+00  0.00000000E+00  0.00000000E+00
  0.00000000E+00  0.00000000E+00  0.00000000E+00
  0.00000000E+00  0.00000000E+00  0.00000000E+00
  0.00000000E+00  0.00000000E+00  0.00000000E+00
  0.00000000E+00  0.00000000E+00  0.00000000E+00
  0.00000000E+00  0.00000000E+00  0.00000000E+00
  0.00000000E+00  0.00000000E+00  0.00000000E+00
  0.00000000E+00  0.00000000E+00  0.00000000E+00
  0.00000000E+00  0.00000000E+00  0.00000000E+00
  0.00000000E+00  0.00000000E+00  0.00000000E+00
  0.00000000E+00  0.00000000E+00  0.00000000E+00
  0.00000000E+00  0.00000000E+00  0.00000000E+00
  0.00000000E+00  0.00000000E+00  0.00000000E+00
  0.00000000E+00  0.00000000E+00  0.00000000E+00
  0.00000000E+00  0.00000000E+00  0.00000000E+00
  0.00000000E+00  0.00000000E+00  0.00000000E+00
  0.00000000E+00  0.00000000E+00  0.00000000E+00
  0.00000000E+00  0.00000000E+00  0.00000000E+00
  0.00000000E+00  0.00000000E+00  0.00000000E+00
  0.00000000E+00  0.00000000E+00  0.00000000E+00
  0.00000000E+00  0.00000000E+00  0.00000000E+00
  0.00000000E+00  0.00000000E+00  0.00000000E+00
  0.00000000E+00  0.00000000E+00  0.00000000E+00
  0.00000000E+00  0.00000000E+00  0.00000000E+00
  0.00000000E+00  0.00000000E+00  0.00000000E+00
  0.00000000E+00  0.00000000E+00  0.00000000E+00
  0.00000000E+00  0.00000000E+00  0.00000000E+00
  0.00000000E+00  0.00000000E+00  0.00000000E+00
  0.00000000E+00  0.00000000E+00  0.00000000E+00
  0.00000000E+00  0.00000000E+00  0.00000000E+00
  0.00000000E+00  0.00000000E+00  0.00000000E+00
  0.00000000E+00  0.00000000E+00  0.00000000E+00
  0.00000000E+00  0.00000000E+00  0.00000000E+00
  0.00000000E+00  0.00000000E+00  0.00000000E+00
  0.00000000E+00  0.00000000E+00  0.00000000E+00
  0.00000000E+00  0.00000000E+00  0.00000000E+00
  0.00000000E+00  0.00000000E+00  0.00000000E+00
  0.00000000E+00  0.00000000E+00  0.00000000E+00
  0.00000000E+00  0.00000000E+00  0.00000000E+00
  0.00000000E+00  0.00000000E+00  0.00000000E+00
  0.00000000E+00  0.00000000E+00  0.00000000E+00
  0.00000000E+00  0.00000000E+00  0.00000000E+00
  0.00000000E+00  0.00000000E+00  0.00000000E+00
  0.00000000E+00  0.00000000E+00  0.00000000E+00
  0.00000000E+00  0.00000000E+00  0.00000000E+00
  0.00000000E+00  0.00000000E+00  0.00000000E+00
  0.00000000E+00  0.00000000E+00  0.00000000E+00
  0.00000000E+00  0.00000000E+00  0.00000000E+00
  0.00000000E+00  0.00000000E+00  0.00000000E+00
  0.00000000E+00  0.00000000E+00  0.00000000E+00
  0.00000000E+00  0.00000000E+00  0.00000000E+00
  0.00000000E+00  0.00000000E+00  0.00000000E+00
  0.00000000E+00  0.00000000E+00  0.00000000E+00
  0.00000000E+00  0.00000000E+00  0.00000000E+00
  0.00000000E+00  0.00000000E+00  0.00000000E+00
  0.00000000E+00  0.00000000E+00  0.00000000E+00
  0.00000000E+00  0.00000000E+00  0.00000000E+00
  0.00000000E+00  0.00000000E+00  0.00000000E+00
  0.00000000E+00  0.00000000E+00  0.00000000E+00
  0.00000000E+00  0.00000000E+00  0.00000000E+00
  0.00000000E+00  0.00000000E+00  0.00000000E+00
  0.00000000E+00  0.00000000E+00  0.00000000E+00
