Cu64 H1 C1 O2                           
   1.00000000000000     
    10.0909822868928778    0.0000000000000000    0.0000000000000000
     5.0454911434464389    8.7390470095880204    0.0000000000000000
     0.0000000000000000    0.0000000000000000   26.1794394015877110
   Cu   H    C    O 
    64     1     1     2
Selective dynamics
Direct
  0.0000000000000000  0.0000000000000000  0.3819791496143949   F   F   F
  0.2500000000000000  0.0000000000000000  0.3819791496143949   F   F   F
  0.5000000000000000  0.0000000000000000  0.3819791496143949   F   F   F
  0.7500000000000000  0.0000000000000000  0.3819791496143949   F   F   F
  0.0000000000000000  0.2500000000000000  0.3819791496143949   F   F   F
  0.2500000000000000  0.2500000000000000  0.3819791496143949   F   F   F
  0.5000000000000000  0.2500000000000000  0.3819791496143949   F   F   F
  0.7500000000000000  0.2500000000000000  0.3819791496143949   F   F   F
  0.0000000000000000  0.5000000000000000  0.3819791496143949   F   F   F
  0.2500000000000000  0.5000000000000000  0.3819791496143949   F   F   F
  0.5000000000000000  0.5000000000000000  0.3819791496143949   F   F   F
  0.7500000000000000  0.5000000000000000  0.3819791496143949   F   F   F
  0.0000000000000000  0.7500000000000000  0.3819791496143949   F   F   F
  0.2500000000000000  0.7500000000000000  0.3819791496143949   F   F   F
  0.5000000000000000  0.7500000000000000  0.3819791496143949   F   F   F
  0.7500000000000000  0.7500000000000000  0.3819791496143949   F   F   F
  0.0833333333333357  0.0833333333333357  0.4606597165381316   F   F   F
  0.3333333333333357  0.0833333333333357  0.4606597165381316   F   F   F
  0.5833333333333357  0.0833333333333357  0.4606597165381316   F   F   F
  0.8333333333333357  0.0833333333333357  0.4606597165381316   F   F   F
  0.0833333333333357  0.3333333333333357  0.4606597165381316   F   F   F
  0.3333333333333357  0.3333333333333357  0.4606597165381316   F   F   F
  0.5833333333333357  0.3333333333333357  0.4606597165381316   F   F   F
  0.8333333333333357  0.3333333333333357  0.4606597165381316   F   F   F
  0.0833333333333357  0.5833333333333357  0.4606597165381316   F   F   F
  0.3333333333333357  0.5833333333333357  0.4606597165381316   F   F   F
  0.5833333333333357  0.5833333333333357  0.4606597165381316   F   F   F
  0.8333333333333357  0.5833333333333357  0.4606597165381316   F   F   F
  0.0833333333333357  0.8333333333333357  0.4606597165381316   F   F   F
  0.3333333333333357  0.8333333333333357  0.4606597165381316   F   F   F
  0.5833333333333357  0.8333333333333357  0.4606597165381316   F   F   F
  0.8333333333333357  0.8333333333333357  0.4606597165381316   F   F   F
  0.9165714788302353  0.1669376199662764  0.5386068469596097   F   F   F
  0.1671266489685905  0.1662383806351500  0.5387423220894973   F   F   F
  0.4166551982754214  0.1664001183087152  0.5386158770543616   F   F   F
  0.6666632725083375  0.1668436526532631  0.5386413607077145   F   F   F
  0.9164783429912262  0.4172146606536487  0.5384437352735105   F   F   F
  0.1662928223784306  0.4174028519948649  0.5383610840979571   F   F   F
  0.4164518147084308  0.4170858706567344  0.5384782046090422   F   F   F
  0.6664509151028994  0.4172586342419820  0.5387255949399972   F   F   F
  0.9160880724120943  0.6669949869706215  0.5386242536022365   F   F   F
  0.1670231574647687  0.6670513907364182  0.5386464577839405   F   F   F
  0.4175618859983103  0.6677432708800453  0.5392125175763809   F   F   F
  0.6643619802297280  0.6679870177836307  0.5394150532124726   F   F   F
  0.9167019649387669  0.9167559614158094  0.5385082300638686   F   F   F
  0.1673358821517539  0.9167218151846868  0.5387663221709644   F   F   F
  0.4169921676009309  0.9157909494945429  0.5390812257274220   F   F   F
  0.6664126609792760  0.9164970589380488  0.5386260891065149   F   F   F
  0.9991263867566786  0.0005495242942999  0.6171758648622969   F   F   F
  0.2468188892498304  0.0029876173820469  0.6172672037483267   F   F   F
  0.5011034166263784  0.0020063057900543  0.6167130278724358   F   F   F
  0.7504469999455168  0.0003606186949696  0.6172475579356203   F   F   F
  0.9993542004057616  0.2509810529498040  0.6172155166877573   F   F   F
  0.2491612335517033  0.2522344656193525  0.6165782761025014   F   F   F
  0.4998771357665603  0.2505530905665836  0.6172815500264832   F   F   F
  0.7501395647556635  0.2498512944984057  0.6173468348281261   F   F   F
  0.9998091460657932  0.5006270405469095  0.6172447395626222   F   F   F
  0.2497383379485498  0.5005861033990726  0.6172218111934100   F   F   F
  0.5003319879012480  0.4983208322122579  0.6168422470899486   F   F   F
  0.7512945329637901  0.4987072327322011  0.6169226691615322   F   F   F
  0.9999786203126035  0.7503276345010903  0.6173105176525766   F   F   F
  0.2491034688331908  0.7503174814759319  0.6170957119122562   F   F   F
  0.5000554004008961  0.7498377837592400  0.6212683375445991   F   F   F
  0.7507015836467801  0.7503461348784413  0.6171978904092654   F   F   F
  0.3647925859373942  0.9664197662283485  0.7418123285072227   T   T   T
  0.4634671800844359  0.7936928177514773  0.6946788115271545   T   T   T
  0.3809492002942889  0.9516417807202018  0.7044932953430134   T   T   T
  0.5024941632032308  0.7038951454151601  0.7293106263775098   T   T   T
 
  0.00000000E+00  0.00000000E+00  0.00000000E+00
  0.00000000E+00  0.00000000E+00  0.00000000E+00
  0.00000000E+00  0.00000000E+00  0.00000000E+00
  0.00000000E+00  0.00000000E+00  0.00000000E+00
  0.00000000E+00  0.00000000E+00  0.00000000E+00
  0.00000000E+00  0.00000000E+00  0.00000000E+00
  0.00000000E+00  0.00000000E+00  0.00000000E+00
  0.00000000E+00  0.00000000E+00  0.00000000E+00
  0.00000000E+00  0.00000000E+00  0.00000000E+00
  0.00000000E+00  0.00000000E+00  0.00000000E+00
  0.00000000E+00  0.00000000E+00  0.00000000E+00
  0.00000000E+00  0.00000000E+00  0.00000000E+00
  0.00000000E+00  0.00000000E+00  0.00000000E+00
  0.00000000E+00  0.00000000E+00  0.00000000E+00
  0.00000000E+00  0.00000000E+00  0.00000000E+00
  0.00000000E+00  0.00000000E+00  0.00000000E+00
  0.00000000E+00  0.00000000E+00  0.00000000E+00
  0.00000000E+00  0.00000000E+00  0.00000000E+00
  0.00000000E+00  0.00000000E+00  0.00000000E+00
  0.00000000E+00  0.00000000E+00  0.00000000E+00
  0.00000000E+00  0.00000000E+00  0.00000000E+00
  0.00000000E+00  0.00000000E+00  0.00000000E+00
  0.00000000E+00  0.00000000E+00  0.00000000E+00
  0.00000000E+00  0.00000000E+00  0.00000000E+00
  0.00000000E+00  0.00000000E+00  0.00000000E+00
  0.00000000E+00  0.00000000E+00  0.00000000E+00
  0.00000000E+00  0.00000000E+00  0.00000000E+00
  0.00000000E+00  0.00000000E+00  0.00000000E+00
  0.00000000E+00  0.00000000E+00  0.00000000E+00
  0.00000000E+00  0.00000000E+00  0.00000000E+00
  0.00000000E+00  0.00000000E+00  0.00000000E+00
  0.00000000E+00  0.00000000E+00  0.00000000E+00
  0.00000000E+00  0.00000000E+00  0.00000000E+00
  0.00000000E+00  0.00000000E+00  0.00000000E+00
  0.00000000E+00  0.00000000E+00  0.00000000E+00
  0.00000000E+00  0.00000000E+00  0.00000000E+00
  0.00000000E+00  0.00000000E+00  0.00000000E+00
  0.00000000E+00  0.00000000E+00  0.00000000E+00
  0.00000000E+00  0.00000000E+00  0.00000000E+00
  0.00000000E+00  0.00000000E+00  0.00000000E+00
  0.00000000E+00  0.00000000E+00  0.00000000E+00
  0.00000000E+00  0.00000000E+00  0.00000000E+00
  0.00000000E+00  0.00000000E+00  0.00000000E+00
  0.00000000E+00  0.00000000E+00  0.00000000E+00
  0.00000000E+00  0.00000000E+00  0.00000000E+00
  0.00000000E+00  0.00000000E+00  0.00000000E+00
  0.00000000E+00  0.00000000E+00  0.00000000E+00
  0.00000000E+00  0.00000000E+00  0.00000000E+00
  0.00000000E+00  0.00000000E+00  0.00000000E+00
  0.00000000E+00  0.00000000E+00  0.00000000E+00
  0.00000000E+00  0.00000000E+00  0.00000000E+00
  0.00000000E+00  0.00000000E+00  0.00000000E+00
  0.00000000E+00  0.00000000E+00  0.00000000E+00
  0.00000000E+00  0.00000000E+00  0.00000000E+00
  0.00000000E+00  0.00000000E+00  0.00000000E+00
  0.00000000E+00  0.00000000E+00  0.00000000E+00
  0.00000000E+00  0.00000000E+00  0.00000000E+00
  0.00000000E+00  0.00000000E+00  0.00000000E+00
  0.00000000E+00  0.00000000E+00  0.00000000E+00
  0.00000000E+00  0.00000000E+00  0.00000000E+00
  0.00000000E+00  0.00000000E+00  0.00000000E+00
  0.00000000E+00  0.00000000E+00  0.00000000E+00
  0.00000000E+00  0.00000000E+00  0.00000000E+00
  0.00000000E+00  0.00000000E+00  0.00000000E+00
  0.00000000E+00  0.00000000E+00  0.00000000E+00
  0.00000000E+00  0.00000000E+00  0.00000000E+00
  0.00000000E+00  0.00000000E+00  0.00000000E+00
  0.00000000E+00  0.00000000E+00  0.00000000E+00
